--------------------------------------------------------------------------
WARNING: No preset parameters were found for the device that Open MPI
detected:

  Local host:            comp-001-zone-a-svg-production-20250821-cluster-101.mat3ra.com
  Device name:           mlx5_0
  Device vendor ID:      0x02c9
  Device vendor part ID: 4120

Default device parameters will be used, which may result in lower
performance.  You can edit any of the files specified by the
btl_openib_device_param_files MCA parameter to set values for your
device.

NOTE: You can turn off this warning by setting the MCA parameter
      btl_openib_warn_no_device_params_found to 0.
--------------------------------------------------------------------------
--------------------------------------------------------------------------
WARNING: There was an error initializing an OpenFabrics device.

  Local host:   comp-001-zone-a-svg-production-20250821-cluster-101.mat3ra.com
  Local device: mlx5_0
--------------------------------------------------------------------------

     Program PWSCF v.6.3MaX starts on 30Jul2026 at 12:25: 4 

     This program is part of the open-source Quantum ESPRESSO suite
     for quantum simulation of materials; please cite
         "P. Giannozzi et al., J. Phys.:Condens. Matter 21 395502 (2009);
         "P. Giannozzi et al., J. Phys.:Condens. Matter 29 465901 (2017);
          URL http://www.quantum-espresso.org", 
     in publications or presentations arising from this work. More details at
     http://www.quantum-espresso.org/quote

     Parallel version (MPI), running on     1 processors

     MPI processes distributed on     1 nodes
     Reading input from pw_vc_relax.in

     Current dimensions of program PWSCF are:
     Max number of different atomic species (ntypx) = 10
     Max number of k-points (npk) =  40000
     Max angular momentum in pseudopotentials (lmaxx) =  3

     Subspace diagonalization in iterative solution of the eigenvalue problem:
     a serial algorithm will be used


     G-vector sticks info
     --------------------
     sticks:   dense  smooth     PW     G-vecs:    dense   smooth      PW
     Sum        1639    1285    313                87759    62701    7789



     bravais-lattice index     =            0
     lattice parameter (alat)  =      10.8655  a.u.
     unit-cell volume          =    1835.5661 (a.u.)^3
     number of atoms/cell      =           13
     number of atomic types    =            3
     number of electrons       =       173.00
     number of Kohn-Sham states=          104
     kinetic-energy cutoff     =      40.0000  Ry
     charge density cutoff     =     200.0000  Ry
     convergence threshold     =      1.0E-06
     mixing beta               =       0.3000
     number of iterations used =            8  plain     mixing
     Exchange-correlation      =  SLA  PW   PBX  PBC ( 1  4  3  4 0 0)
     nstep                     =           50


     celldm(1)=  10.865547  celldm(2)=   0.000000  celldm(3)=   0.000000
     celldm(4)=   0.000000  celldm(5)=   0.000000  celldm(6)=   0.000000

     crystal axes: (cart. coord. in units of alat)
               a(1) = (   1.000000   0.000000   0.000000 )  
               a(2) = (  -0.500000   0.866025   0.000000 )  
               a(3) = (   0.000000   0.000000   1.652284 )  

     reciprocal axes: (cart. coord. in units 2 pi/alat)
               b(1) = (  1.000000  0.577350 -0.000000 )  
               b(2) = (  0.000000  1.154701  0.000000 )  
               b(3) = (  0.000000 -0.000000  0.605223 )  


     PseudoPot. # 1 for Y  read from file:
     /cluster-101-home/ihbjiobhjiobhjj/data/ihbjiobhjiobhjj-default/new-job-jul-30-2026-16-16-pm-w9MSByQTsYgmLGSDx/pseudo/y_pbe_gbrv_1.4.upf
     MD5 check sum: d034151ed7554c50b6e82763ed42c788
     Pseudo is Ultrasoft + core correction, Zval = 11.0
     Generated by new atomic code, or converted to UPF format
     Using radial grid of  885 points,  6 beta functions with: 
                l(1) =   0
                l(2) =   0
                l(3) =   1
                l(4) =   1
                l(5) =   2
                l(6) =   2
     Q(r) pseudized with  8 coefficients,  rinner =    1.200   1.200   1.200
                                                       1.200   1.200

     PseudoPot. # 2 for Nb read from file:
     /cluster-101-home/ihbjiobhjiobhjj/data/ihbjiobhjiobhjj-default/new-job-jul-30-2026-16-16-pm-w9MSByQTsYgmLGSDx/pseudo/nb_pbe_gbrv_1.0.upf
     MD5 check sum: 573aab8a2fa660278ed4a62cd769473f
     Pseudo is Ultrasoft + core correction, Zval = 13.0
     Generated by new atomic code, or converted to UPF format
     Using radial grid of  887 points,  6 beta functions with: 
                l(1) =   0
                l(2) =   0
                l(3) =   1
                l(4) =   1
                l(5) =   2
                l(6) =   2
     Q(r) pseudized with  6 coefficients,  rinner =    1.000   1.000   1.000
                                                       1.000   1.000

     PseudoPot. # 3 for Sn read from file:
     /cluster-101-home/ihbjiobhjiobhjj/data/ihbjiobhjiobhjj-default/new-job-jul-30-2026-16-16-pm-w9MSByQTsYgmLGSDx/pseudo/sn_pbe_gbrv_1.4.upf
     MD5 check sum: 469debedee59599fedebd795477fea03
     Pseudo is Ultrasoft + core correction, Zval = 14.0
     Generated by new atomic code, or converted to UPF format
     Using radial grid of  891 points,  6 beta functions with: 
                l(1) =   0
                l(2) =   0
                l(3) =   1
                l(4) =   1
                l(5) =   2
                l(6) =   2
     Q(r) pseudized with  8 coefficients,  rinner =    1.350   1.350   1.350
                                                       1.350   1.350

     atomic species   valence    mass     pseudopotential
        Y             11.00    88.90585     Y ( 1.00)
        Nb            13.00    92.90638     Nb( 1.00)
        Sn            14.00   118.71000     Sn( 1.00)

     24 Sym. Ops., with inversion, found



   Cartesian axes

     site n.     atom                  positions (alat units)
         1           Y   tau(   1) = (   0.0000000   0.0000000   0.8261418  )
         2           Nb  tau(   2) = (   0.5000000   0.0000000   0.4142275  )
         3           Nb  tau(   3) = (  -0.2500000   0.4330127   0.4142275  )
         4           Nb  tau(   4) = (   0.2500000   0.4330127   0.4142275  )
         5           Nb  tau(   5) = (   0.5000000   0.0000000   1.2380561  )
         6           Nb  tau(   6) = (  -0.2500000   0.4330127   1.2380561  )
         7           Nb  tau(   7) = (   0.2500000   0.4330127   1.2380561  )
         8           Sn  tau(   8) = (   0.0000000   0.0000000   0.2817143  )
         9           Sn  tau(   9) = (   0.0000000   0.0000000   1.3705692  )
        10           Sn  tau(  10) = (   0.5000005   0.2886748   0.0000000  )
        11           Sn  tau(  11) = (  -0.0000005   0.5773506   0.0000000  )
        12           Sn  tau(  12) = (   0.5000005   0.2886748   0.8261418  )
        13           Sn  tau(  13) = (  -0.0000005   0.5773506   0.8261418  )

     number of k points=     1  gaussian smearing, width (Ry)=  0.0050
                       cart. coord. in units 2pi/alat
        k(    1) = (   0.0000000   0.0000000   0.0000000), wk =   2.0000000

     Dense  grid:    87759 G-vectors     FFT dimensions: (  50,  50,  81)

     Smooth grid:    62701 G-vectors     FFT dimensions: (  45,  45,  75)

     Estimated max dynamical RAM per process >     407.12 MB

     Initial potential from superposition of free atoms

     starting charge  166.97886, renormalised to  173.00000
     Starting wfcs are  145 randomized atomic wfcs

     total cpu time spent up to now is       10.1 secs

     Self-consistent Calculation

     iteration #  1     ecut=    40.00 Ry     beta= 0.30
     Davidson diagonalization with overlap
     ethr =  1.00E-02,  avg # of iterations =  3.0

     total cpu time spent up to now is       13.0 secs

     total energy              =   -1755.83111736 Ry
     Harris-Foulkes estimate   =   -1758.93439036 Ry
     estimated scf accuracy    <       7.16194823 Ry

     iteration #  2     ecut=    40.00 Ry     beta= 0.30
     Davidson diagonalization with overlap
     ethr =  4.14E-03,  avg # of iterations =  4.0

     total cpu time spent up to now is       16.0 secs

     total energy              =   -1756.35970364 Ry
     Harris-Foulkes estimate   =   -1756.86690815 Ry
     estimated scf accuracy    <       1.26444937 Ry

     iteration #  3     ecut=    40.00 Ry     beta= 0.30
     Davidson diagonalization with overlap
     ethr =  7.31E-04,  avg # of iterations =  5.0

     total cpu time spent up to now is       19.1 secs

     total energy              =   -1756.39618028 Ry
     Harris-Foulkes estimate   =   -1756.56955849 Ry
     estimated scf accuracy    <       0.45417015 Ry

     iteration #  4     ecut=    40.00 Ry     beta= 0.30
     Davidson diagonalization with overlap
     ethr =  2.63E-04,  avg # of iterations =  5.0

     total cpu time spent up to now is       22.2 secs

     total energy              =   -1756.44513132 Ry
     Harris-Foulkes estimate   =   -1756.48369939 Ry
     estimated scf accuracy    <       0.13482542 Ry

     iteration #  5     ecut=    40.00 Ry     beta= 0.30
     Davidson diagonalization with overlap
     ethr =  7.79E-05,  avg # of iterations =  4.0

     total cpu time spent up to now is       25.2 secs

     total energy              =   -1756.45674006 Ry
     Harris-Foulkes estimate   =   -1756.46225957 Ry
     estimated scf accuracy    <       0.02800760 Ry

     iteration #  6     ecut=    40.00 Ry     beta= 0.30
     Davidson diagonalization with overlap
     ethr =  1.62E-05,  avg # of iterations =  3.0

     total cpu time spent up to now is       27.9 secs

     total energy              =   -1756.45641511 Ry
     Harris-Foulkes estimate   =   -1756.46124903 Ry
     estimated scf accuracy    <       0.01479407 Ry

     iteration #  7     ecut=    40.00 Ry     beta= 0.30
     Davidson diagonalization with overlap
     ethr =  8.55E-06,  avg # of iterations =  4.0

     total cpu time spent up to now is       30.8 secs

     total energy              =   -1756.45672479 Ry
     Harris-Foulkes estimate   =   -1756.46298091 Ry
     estimated scf accuracy    <       0.03398101 Ry

     iteration #  8     ecut=    40.00 Ry     beta= 0.30
     Davidson diagonalization with overlap
     ethr =  8.55E-06,  avg # of iterations =  4.0

     total cpu time spent up to now is       33.6 secs

     total energy              =   -1756.45982185 Ry
     Harris-Foulkes estimate   =   -1756.46012718 Ry
     estimated scf accuracy    <       0.00224819 Ry

     iteration #  9     ecut=    40.00 Ry     beta= 0.30
     Davidson diagonalization with overlap
     ethr =  1.30E-06,  avg # of iterations =  2.0

     total cpu time spent up to now is       36.2 secs

     total energy              =   -1756.45999815 Ry
     Harris-Foulkes estimate   =   -1756.46000573 Ry
     estimated scf accuracy    <       0.00002904 Ry

     iteration # 10     ecut=    40.00 Ry     beta= 0.30
     Davidson diagonalization with overlap
     ethr =  1.68E-08,  avg # of iterations =  6.0

     total cpu time spent up to now is       40.1 secs

     total energy              =   -1756.46001671 Ry
     Harris-Foulkes estimate   =   -1756.46001743 Ry
     estimated scf accuracy    <       0.00000438 Ry

     iteration # 11     ecut=    40.00 Ry     beta= 0.30
     Davidson diagonalization with overlap
     ethr =  2.53E-09,  avg # of iterations =  5.0

     total cpu time spent up to now is       43.4 secs

     total energy              =   -1756.46000685 Ry
     Harris-Foulkes estimate   =   -1756.46002443 Ry
     estimated scf accuracy    <       0.00011401 Ry

     iteration # 12     ecut=    40.00 Ry     beta= 0.30
     Davidson diagonalization with overlap
     ethr =  2.53E-09,  avg # of iterations =  4.0

     total cpu time spent up to now is       46.6 secs

     total energy              =   -1756.46001657 Ry
     Harris-Foulkes estimate   =   -1756.46001786 Ry
     estimated scf accuracy    <       0.00000895 Ry

     iteration # 13     ecut=    40.00 Ry     beta= 0.30
     Davidson diagonalization with overlap
     ethr =  2.53E-09,  avg # of iterations =  4.0

     total cpu time spent up to now is       49.4 secs

     End of self-consistent calculation

          k = 0.0000 0.0000 0.0000 (  7789 PWs)   bands (ev):

   -40.7702 -40.7699 -40.6244 -40.6243 -40.6243 -40.6242 -27.1227 -17.4228
   -17.4158 -16.9448 -16.9447 -16.9440 -16.9439 -16.8999 -16.8867 -16.7346
   -16.7345 -16.7334 -16.7333 -16.3640 -16.3638 -16.2640 -16.2640 -16.2632
   -16.2632  -7.1910  -7.1602  -7.1602  -5.8615  -5.8372  -5.8372  -5.8189
    -5.8189  -5.8014  -5.8014  -5.7913  -5.7387  -5.7387  -5.6260  -5.5520
    -5.5433  -5.5433  -5.5418  -5.5418  -5.5163  -5.5163  -5.5090  -5.4875
    -5.4852  -5.4852  -5.4811  -5.4811  -5.4607  -5.4607  -5.4568  -5.4568
    -5.3980  -5.3980   5.1167   6.3721   7.3418   7.9756   8.2527   9.5990
     9.8868  10.5739  11.0011  11.1094  11.1095  12.0284  12.0285  12.3904
    12.3905  12.7396  12.7396  12.8408  13.0933  13.0934  13.2101  13.3198
    13.3199  13.4131  13.7221  13.7222  14.3747  14.3748  14.4096  15.3588
    15.3590  16.4193  16.4649  16.4650  16.5543  16.5544  16.5674  16.5757
    16.5758  16.7585  16.7586  16.9595  16.9853  17.1942  18.8391  18.8392

     the Fermi energy is    14.4356 ev

!    total energy              =   -1756.46001712 Ry
     Harris-Foulkes estimate   =   -1756.46001730 Ry
     estimated scf accuracy    <       0.00000024 Ry

     The total energy is the sum of the following terms:

     one-electron contribution =    -427.33338615 Ry
     hartree contribution      =     324.89544101 Ry
     xc contribution           =    -396.48926966 Ry
     ewald contribution        =   -1257.52783107 Ry
     smearing contrib. (-TS)   =      -0.00497125 Ry

     convergence has been achieved in  13 iterations

     Forces acting on atoms (cartesian axes, Ry/au):

     atom    1 type  1   force =     0.00000000    0.00000000    0.00000000
     atom    2 type  2   force =     0.00000000    0.00000000    0.02735373
     atom    3 type  2   force =    -0.00000000   -0.00000000    0.02735373
     atom    4 type  2   force =     0.00000000    0.00000000    0.02735373
     atom    5 type  2   force =     0.00000000   -0.00000000   -0.02735373
     atom    6 type  2   force =     0.00000000    0.00000000   -0.02735373
     atom    7 type  2   force =     0.00000000    0.00000000   -0.02735373
     atom    8 type  3   force =     0.00000000    0.00000000   -0.14673386
     atom    9 type  3   force =     0.00000000    0.00000000    0.14673386
     atom   10 type  3   force =     0.00000000   -0.00000000   -0.00000000
     atom   11 type  3   force =    -0.00000000    0.00000000   -0.00000000
     atom   12 type  3   force =     0.00000000    0.00000000    0.00000000
     atom   13 type  3   force =     0.00000000    0.00000000    0.00000000

     Total force =     0.218062     Total SCF correction =     0.001432


     Computing stress (Cartesian axis) and pressure

          total   stress  (Ry/bohr**3)                   (kbar)     P=  -10.07
  -0.00040468   0.00000000   0.00000000        -59.53      0.00      0.00
   0.00000000  -0.00040468   0.00000000          0.00    -59.53      0.00
   0.00000000   0.00000000   0.00060404          0.00      0.00     88.86


     BFGS Geometry Optimization

     number of scf cycles    =   1
     number of bfgs steps    =   0

     enthalpy new            =   -1756.4600171246 Ry

     new trust radius        =       0.1467338621 bohr
     new conv_thr            =       0.0000010000 Ry

     new unit-cell volume =   1825.77381 a.u.^3 (   270.55176 Ang^3 )
     density =      8.33857 g/cm^3

CELL_PARAMETERS (angstrom)
   5.691628911   0.000000000   0.000000000
  -2.845814455   4.929095226   0.000000000
   0.000000000   0.000000000   9.643764153

ATOMIC_POSITIONS (crystal)
Y        0.000000000   0.000000000   0.500000000
Nb       0.500000000   0.000000000   0.252223633
Nb       0.000000000   0.500000000   0.252223633
Nb       0.500000000   0.500000000   0.252223633
Nb       0.500000000  -0.000000000   0.747776367
Nb       0.000000000   0.500000000   0.747776367
Nb       0.500000000   0.500000000   0.747776367
Sn       0.000000000   0.000000000   0.162326762
Sn       0.000000000   0.000000000   0.837673238
Sn       0.666667000   0.333333000  -0.000000000
Sn       0.333333000   0.666667000  -0.000000000
Sn       0.666667000   0.333333000   0.500000000
Sn       0.333333000   0.666667000   0.500000000



     Writing output data file __prefix__.save/
     NEW-OLD atomic charge density approx. for the potential
     extrapolated charge  172.10443, renormalised to  173.00000

     total cpu time spent up to now is       79.5 secs

     Self-consistent Calculation

     iteration #  1     ecut=    40.00 Ry     beta= 0.30
     Davidson diagonalization with overlap
     ethr =  1.00E-06,  avg # of iterations = 14.0

     total cpu time spent up to now is       85.2 secs

     total energy              =   -1756.48411158 Ry
     Harris-Foulkes estimate   =   -1758.40493107 Ry
     estimated scf accuracy    <       0.09142787 Ry

     iteration #  2     ecut=    40.00 Ry     beta= 0.30
     Davidson diagonalization with overlap
     ethr =  5.28E-05,  avg # of iterations =  4.0

     total cpu time spent up to now is       88.7 secs

     total energy              =   -1756.52015414 Ry
     Harris-Foulkes estimate   =   -1756.56203547 Ry
     estimated scf accuracy    <       0.19903550 Ry

     iteration #  3     ecut=    40.00 Ry     beta= 0.30
     Davidson diagonalization with overlap
     ethr =  5.28E-05,  avg # of iterations =  5.0

     total cpu time spent up to now is       91.7 secs

     total energy              =   -1756.53085498 Ry
     Harris-Foulkes estimate   =   -1756.53311377 Ry
     estimated scf accuracy    <       0.02545530 Ry

     iteration #  4     ecut=    40.00 Ry     beta= 0.30
     Davidson diagonalization with overlap
     ethr =  1.47E-05,  avg # of iterations =  1.0

     total cpu time spent up to now is       94.3 secs

     total energy              =   -1756.53031124 Ry
     Harris-Foulkes estimate   =   -1756.53141962 Ry
     estimated scf accuracy    <       0.00829190 Ry

     iteration #  5     ecut=    40.00 Ry     beta= 0.30
     Davidson diagonalization with overlap
     ethr =  4.79E-06,  avg # of iterations =  4.0

     total cpu time spent up to now is       97.1 secs

     total energy              =   -1756.53062212 Ry
     Harris-Foulkes estimate   =   -1756.53072411 Ry
     estimated scf accuracy    <       0.00085851 Ry

     iteration #  6     ecut=    40.00 Ry     beta= 0.30
     Davidson diagonalization with overlap
     ethr =  4.96E-07,  avg # of iterations =  4.0

     total cpu time spent up to now is      100.1 secs

     total energy              =   -1756.52982157 Ry
     Harris-Foulkes estimate   =   -1756.53091653 Ry
     estimated scf accuracy    <       0.00490835 Ry

     iteration #  7     ecut=    40.00 Ry     beta= 0.30
     Davidson diagonalization with overlap
     ethr =  4.96E-07,  avg # of iterations =  5.0

     total cpu time spent up to now is      103.3 secs

     total energy              =   -1756.53046613 Ry
     Harris-Foulkes estimate   =   -1756.53075655 Ry
     estimated scf accuracy    <       0.00262037 Ry

     iteration #  8     ecut=    40.00 Ry     beta= 0.30
     Davidson diagonalization with overlap
     ethr =  4.96E-07,  avg # of iterations =  3.0

     total cpu time spent up to now is      106.0 secs

     total energy              =   -1756.53057489 Ry
     Harris-Foulkes estimate   =   -1756.53058458 Ry
     estimated scf accuracy    <       0.00009433 Ry

     iteration #  9     ecut=    40.00 Ry     beta= 0.30
     Davidson diagonalization with overlap
     ethr =  5.45E-08,  avg # of iterations =  4.0

     total cpu time spent up to now is      108.9 secs

     total energy              =   -1756.53057909 Ry
     Harris-Foulkes estimate   =   -1756.53058283 Ry
     estimated scf accuracy    <       0.00001204 Ry

     iteration # 10     ecut=    40.00 Ry     beta= 0.30
     Davidson diagonalization with overlap
     ethr =  6.96E-09,  avg # of iterations =  3.0

     total cpu time spent up to now is      111.8 secs

     total energy              =   -1756.53058064 Ry
     Harris-Foulkes estimate   =   -1756.53058268 Ry
     estimated scf accuracy    <       0.00001598 Ry

     iteration # 11     ecut=    40.00 Ry     beta= 0.30
     Davidson diagonalization with overlap
     ethr =  6.96E-09,  avg # of iterations =  1.0

     total cpu time spent up to now is      114.3 secs

     End of self-consistent calculation

          k = 0.0000 0.0000 0.0000 (  7789 PWs)   bands (ev):

   -40.6539 -40.6537 -40.4906 -40.4906 -40.4906 -40.4905 -27.0002 -17.3501
   -17.3441 -16.8400 -16.8399 -16.8393 -16.8393 -16.7906 -16.7788 -16.6111
   -16.6110 -16.6098 -16.6097 -16.2081 -16.2080 -16.0919 -16.0918 -16.0912
   -16.0912  -7.0460  -7.0460  -7.0421  -5.7162  -5.6909  -5.6908  -5.6838
    -5.6838  -5.6502  -5.6502  -5.6394  -5.5943  -5.5942  -5.5765  -5.4876
    -5.4876  -5.4397  -5.4397  -5.4348  -5.4263  -5.4263  -5.4098  -5.4098
    -5.3948  -5.3469  -5.3469  -5.3277  -5.3277  -5.3245  -5.3150  -5.3150
    -5.2493  -5.2493   5.1746   6.3514   7.4305   8.1701   8.4768   9.7251
    10.1529  10.6756  11.0123  11.2469  11.2469  12.0551  12.0552  12.4618
    12.4618  12.7910  12.8012  12.8012  13.0675  13.0676  13.1694  13.2488
    13.4188  13.4190  13.9330  13.9331  14.6372  14.6373  14.6596  15.4493
    15.4494  16.6128  16.6771  16.6772  16.7437  16.7829  16.7829  16.8210
    16.8211  16.8654  16.9865  16.9866  17.2014  17.2328  19.0280  19.0281

     the Fermi energy is    14.6923 ev

!    total energy              =   -1756.53058108 Ry
     Harris-Foulkes estimate   =   -1756.53058148 Ry
     estimated scf accuracy    <       0.00000052 Ry

     The total energy is the sum of the following terms:

     one-electron contribution =    -421.96890139 Ry
     hartree contribution      =     322.95596210 Ry
     xc contribution           =    -396.52869726 Ry
     ewald contribution        =   -1260.98377877 Ry
     smearing contrib. (-TS)   =      -0.00516576 Ry

     convergence has been achieved in  11 iterations

     Forces acting on atoms (cartesian axes, Ry/au):

     atom    1 type  1   force =     0.00000000   -0.00000000   -0.00000000
     atom    2 type  2   force =    -0.00000000    0.00000000    0.01835102
     atom    3 type  2   force =    -0.00000000    0.00000000    0.01835102
     atom    4 type  2   force =    -0.00000000   -0.00000000    0.01835102
     atom    5 type  2   force =     0.00000000    0.00000000   -0.01835102
     atom    6 type  2   force =     0.00000000   -0.00000000   -0.01835102
     atom    7 type  2   force =     0.00000000    0.00000000   -0.01835102
     atom    8 type  3   force =    -0.00000000   -0.00000000   -0.12896957
     atom    9 type  3   force =     0.00000000   -0.00000000    0.12896957
     atom   10 type  3   force =     0.00000000    0.00000000    0.00000000
     atom   11 type  3   force =     0.00000000    0.00000000   -0.00000000
     atom   12 type  3   force =     0.00000000    0.00000000   -0.00000000
     atom   13 type  3   force =    -0.00000000   -0.00000000   -0.00000000

     Total force =     0.187848     Total SCF correction =     0.000437


     Computing stress (Cartesian axis) and pressure

          total   stress  (Ry/bohr**3)                   (kbar)     P=  -17.24
  -0.00032403   0.00000000  -0.00000000        -47.67      0.00     -0.00
   0.00000000  -0.00032403   0.00000000          0.00    -47.67      0.00
  -0.00000000   0.00000000   0.00029652         -0.00      0.00     43.62


     number of scf cycles    =   2
     number of bfgs steps    =   1

     enthalpy old            =   -1756.4600171246 Ry
     enthalpy new            =   -1756.5305810776 Ry

     CASE: enthalpy_new < enthalpy_old

     new trust radius        =       0.1638446613 bohr
     new conv_thr            =       0.0000010000 Ry

     new unit-cell volume =   1805.82989 a.u.^3 (   267.59638 Ang^3 )
     density =      8.43066 g/cm^3

CELL_PARAMETERS (angstrom)
   5.633190497   0.000000000  -0.000000000
  -2.816595248   4.878486075   0.000000000
  -0.000000000   0.000000000   9.737348716

ATOMIC_POSITIONS (crystal)
Y        0.000000000   0.000000000   0.500000000
Nb       0.500000000   0.000000000   0.253549287
Nb       0.000000000   0.500000000   0.253549287
Nb       0.500000000   0.500000000   0.253549287
Nb       0.500000000  -0.000000000   0.746450713
Nb       0.000000000   0.500000000   0.746450713
Nb       0.500000000   0.500000000   0.746450713
Sn      -0.000000000  -0.000000000   0.153336200
Sn      -0.000000000  -0.000000000   0.846663800
Sn       0.666667000   0.333333000   0.000000000
Sn       0.333333000   0.666667000  -0.000000000
Sn       0.666667000   0.333333000   0.500000000
Sn       0.333333000   0.666667000   0.500000000



     Writing output data file __prefix__.save/
     NEW-OLD atomic charge density approx. for the potential

     Check: negative/imaginary core charge=   -0.000001    0.000000
     extrapolated charge  171.15585, renormalised to  173.00000

     total cpu time spent up to now is      144.5 secs

     Self-consistent Calculation

     iteration #  1     ecut=    40.00 Ry     beta= 0.30
     Davidson diagonalization with overlap
     ethr =  1.00E-06,  avg # of iterations = 14.0

     total cpu time spent up to now is      150.2 secs

     total energy              =   -1756.47249634 Ry
     Harris-Foulkes estimate   =   -1760.38319644 Ry
     estimated scf accuracy    <       0.16887247 Ry

     iteration #  2     ecut=    40.00 Ry     beta= 0.30
     Davidson diagonalization with overlap
     ethr =  9.76E-05,  avg # of iterations =  5.0

     total cpu time spent up to now is      153.9 secs

     total energy              =   -1756.56392893 Ry
     Harris-Foulkes estimate   =   -1756.64330896 Ry
     estimated scf accuracy    <       0.37925555 Ry

     iteration #  3     ecut=    40.00 Ry     beta= 0.30
     Davidson diagonalization with overlap
     ethr =  9.76E-05,  avg # of iterations =  5.0

     total cpu time spent up to now is      157.0 secs

     total energy              =   -1756.58484391 Ry
     Harris-Foulkes estimate   =   -1756.59011780 Ry
     estimated scf accuracy    <       0.03897355 Ry

     iteration #  4     ecut=    40.00 Ry     beta= 0.30
     Davidson diagonalization with overlap
     ethr =  2.25E-05,  avg # of iterations =  1.0

     total cpu time spent up to now is      159.6 secs

     total energy              =   -1756.58557611 Ry
     Harris-Foulkes estimate   =   -1756.58667099 Ry
     estimated scf accuracy    <       0.00753190 Ry

     iteration #  5     ecut=    40.00 Ry     beta= 0.30
     Davidson diagonalization with overlap
     ethr =  4.35E-06,  avg # of iterations =  4.0

     total cpu time spent up to now is      162.4 secs

     total energy              =   -1756.58455970 Ry
     Harris-Foulkes estimate   =   -1756.58585747 Ry
     estimated scf accuracy    <       0.00553075 Ry

     iteration #  6     ecut=    40.00 Ry     beta= 0.30
     Davidson diagonalization with overlap
     ethr =  3.20E-06,  avg # of iterations =  4.0

     total cpu time spent up to now is      165.2 secs

     total energy              =   -1756.58456099 Ry
     Harris-Foulkes estimate   =   -1756.58491221 Ry
     estimated scf accuracy    <       0.00069286 Ry

     iteration #  7     ecut=    40.00 Ry     beta= 0.30
     Davidson diagonalization with overlap
     ethr =  4.00E-07,  avg # of iterations =  4.0

     total cpu time spent up to now is      168.7 secs

     total energy              =   -1756.58474243 Ry
     Harris-Foulkes estimate   =   -1756.58481383 Ry
     estimated scf accuracy    <       0.00034295 Ry

     iteration #  8     ecut=    40.00 Ry     beta= 0.30
     Davidson diagonalization with overlap
     ethr =  1.98E-07,  avg # of iterations =  4.0

     total cpu time spent up to now is      171.5 secs

     total energy              =   -1756.58476698 Ry
     Harris-Foulkes estimate   =   -1756.58478985 Ry
     estimated scf accuracy    <       0.00008645 Ry

     iteration #  9     ecut=    40.00 Ry     beta= 0.30
     Davidson diagonalization with overlap
     ethr =  5.00E-08,  avg # of iterations =  4.0

     total cpu time spent up to now is      174.3 secs

     total energy              =   -1756.58477816 Ry
     Harris-Foulkes estimate   =   -1756.58478192 Ry
     estimated scf accuracy    <       0.00002702 Ry

     iteration # 10     ecut=    40.00 Ry     beta= 0.30
     Davidson diagonalization with overlap
     ethr =  1.56E-08,  avg # of iterations =  3.0

     total cpu time spent up to now is      177.0 secs

     total energy              =   -1756.58478012 Ry
     Harris-Foulkes estimate   =   -1756.58478057 Ry
     estimated scf accuracy    <       0.00000102 Ry

     iteration # 11     ecut=    40.00 Ry     beta= 0.30
     Davidson diagonalization with overlap
     ethr =  5.89E-10,  avg # of iterations =  8.0

     total cpu time spent up to now is      180.8 secs

     End of self-consistent calculation

          k = 0.0000 0.0000 0.0000 (  7789 PWs)   bands (ev):

   -40.4270 -40.4268 -40.2438 -40.2438 -40.2437 -40.2437 -26.7440 -17.1768
   -17.1711 -16.6296 -16.6295 -16.6290 -16.6289 -16.5719 -16.5606 -16.3754
   -16.3753 -16.3739 -16.3738 -15.9410 -15.9409 -15.8069 -15.8068 -15.8063
   -15.8062  -6.8045  -6.8045  -6.7748  -5.4758  -5.4566  -5.4528  -5.4528
    -5.4494  -5.4493  -5.4036  -5.4036  -5.3912  -5.3531  -5.3531  -5.3481
    -5.3480  -5.2746  -5.2746  -5.2527  -5.2484  -5.2484  -5.2460  -5.2460
    -5.1289  -5.0910  -5.0910  -5.0575  -5.0575  -5.0563  -5.0563  -5.0515
    -4.9871  -4.9871   5.2837   6.4141   7.6453   8.4691   8.7627   9.9350
    10.5075  10.8560  11.1272  11.4570  11.4571  12.1537  12.1538  12.6323
    12.6323  12.8669  12.9620  12.9620  13.1193  13.1599  13.1600  13.2757
    13.6098  13.6099  14.2194  14.2195  15.0004  15.0005  15.0093  15.6599
    15.6601  16.9089  16.9376  16.9968  16.9969  17.0302  17.1013  17.1014
    17.1820  17.1820  17.3185  17.3185  17.3589  17.5797  19.2467  19.2468

     the Fermi energy is    15.0501 ev

!    total energy              =   -1756.58478058 Ry
     Harris-Foulkes estimate   =   -1756.58478065 Ry
     estimated scf accuracy    <       0.00000010 Ry

     The total energy is the sum of the following terms:

     one-electron contribution =    -413.70844657 Ry
     hartree contribution      =     320.26500928 Ry
     xc contribution           =    -396.64314934 Ry
     ewald contribution        =   -1266.49291428 Ry
     smearing contrib. (-TS)   =      -0.00527968 Ry

     convergence has been achieved in  11 iterations

     Forces acting on atoms (cartesian axes, Ry/au):

     atom    1 type  1   force =    -0.00000000    0.00000000   -0.00000000
     atom    2 type  2   force =     0.00000000   -0.00000000    0.00884230
     atom    3 type  2   force =     0.00000000   -0.00000000    0.00884230
     atom    4 type  2   force =    -0.00000000    0.00000000    0.00884230
     atom    5 type  2   force =    -0.00000000    0.00000000   -0.00884230
     atom    6 type  2   force =    -0.00000000    0.00000000   -0.00884230
     atom    7 type  2   force =     0.00000000   -0.00000000   -0.00884230
     atom    8 type  3   force =     0.00000000    0.00000000   -0.10327203
     atom    9 type  3   force =    -0.00000000   -0.00000000    0.10327203
     atom   10 type  3   force =     0.00000000    0.00000000   -0.00000000
     atom   11 type  3   force =    -0.00000000   -0.00000000    0.00000000
     atom   12 type  3   force =    -0.00000000   -0.00000000   -0.00000000
     atom   13 type  3   force =     0.00000000    0.00000000    0.00000000

     Total force =     0.147646     Total SCF correction =     0.001311


     Computing stress (Cartesian axis) and pressure

          total   stress  (Ry/bohr**3)                   (kbar)     P=  -13.10
  -0.00020849  -0.00000000  -0.00000000        -30.67     -0.00     -0.00
  -0.00000000  -0.00020849  -0.00000000         -0.00    -30.67     -0.00
   0.00000000  -0.00000000   0.00014972          0.00     -0.00     22.02


     number of scf cycles    =   3
     number of bfgs steps    =   2

     enthalpy old            =   -1756.5305810776 Ry
     enthalpy new            =   -1756.5847805788 Ry

     CASE: enthalpy_new < enthalpy_old

     new trust radius        =       0.2481519524 bohr
     new conv_thr            =       0.0000010000 Ry

     new unit-cell volume =   1777.80922 a.u.^3 (   263.44414 Ang^3 )
     density =      8.56354 g/cm^3

CELL_PARAMETERS (angstrom)
   5.559245588   0.000000000   0.000000000
  -2.779622794   4.814447905  -0.000000000
  -0.000000000   0.000000000   9.842970757

ATOMIC_POSITIONS (crystal)
Y        0.000000000   0.000000000   0.500000000
Nb       0.500000000   0.000000000   0.254954560
Nb       0.000000000   0.500000000   0.254954560
Nb       0.500000000   0.500000000   0.254954560
Nb       0.500000000  -0.000000000   0.745045440
Nb       0.000000000   0.500000000   0.745045440
Nb       0.500000000   0.500000000   0.745045440
Sn       0.000000000   0.000000000   0.139850356
Sn      -0.000000000  -0.000000000   0.860149644
Sn       0.666667000   0.333333000  -0.000000000
Sn       0.333333000   0.666667000   0.000000000
Sn       0.666667000   0.333333000   0.500000000
Sn       0.333333000   0.666667000   0.500000000



     Writing output data file __prefix__.save/
     NEW-OLD atomic charge density approx. for the potential

     Check: negative/imaginary core charge=   -0.000001    0.000000
     extrapolated charge  170.36819, renormalised to  173.00000

     total cpu time spent up to now is      210.8 secs

     Self-consistent Calculation

     iteration #  1     ecut=    40.00 Ry     beta= 0.30
     Davidson diagonalization with overlap
     ethr =  1.00E-06,  avg # of iterations = 13.0

     total cpu time spent up to now is      216.5 secs

     total energy              =   -1755.97785315 Ry
     Harris-Foulkes estimate   =   -1761.99848633 Ry
     estimated scf accuracy    <       1.16759999 Ry

     iteration #  2     ecut=    40.00 Ry     beta= 0.30
     Davidson diagonalization with overlap
     ethr =  6.75E-04,  avg # of iterations =  6.0

     total cpu time spent up to now is      220.2 secs

     total energy              =   -1756.50485314 Ry
     Harris-Foulkes estimate   =   -1757.03307666 Ry
     estimated scf accuracy    <       2.48304185 Ry

     iteration #  3     ecut=    40.00 Ry     beta= 0.30
     Davidson diagonalization with overlap
     ethr =  6.75E-04,  avg # of iterations =  6.0

     total cpu time spent up to now is      223.4 secs

     total energy              =   -1756.65361969 Ry
     Harris-Foulkes estimate   =   -1756.69502066 Ry
     estimated scf accuracy    <       0.26613993 Ry

     iteration #  4     ecut=    40.00 Ry     beta= 0.30
     Davidson diagonalization with overlap
     ethr =  1.54E-04,  avg # of iterations =  3.0

     total cpu time spent up to now is      226.1 secs

     total energy              =   -1756.61876495 Ry
     Harris-Foulkes estimate   =   -1756.65985843 Ry
     estimated scf accuracy    <       0.16813186 Ry

     iteration #  5     ecut=    40.00 Ry     beta= 0.30
     Davidson diagonalization with overlap
     ethr =  9.72E-05,  avg # of iterations =  3.0

     total cpu time spent up to now is      228.9 secs

     total energy              =   -1756.63317330 Ry
     Harris-Foulkes estimate   =   -1756.63489583 Ry
     estimated scf accuracy    <       0.01583507 Ry

     iteration #  6     ecut=    40.00 Ry     beta= 0.30
     Davidson diagonalization with overlap
     ethr =  9.15E-06,  avg # of iterations =  2.0

     total cpu time spent up to now is      231.6 secs

     total energy              =   -1756.63290043 Ry
     Harris-Foulkes estimate   =   -1756.63419616 Ry
     estimated scf accuracy    <       0.01173849 Ry

     iteration #  7     ecut=    40.00 Ry     beta= 0.30
     Davidson diagonalization with overlap
     ethr =  6.79E-06,  avg # of iterations =  3.0

     total cpu time spent up to now is      234.3 secs

     total energy              =   -1756.62971367 Ry
     Harris-Foulkes estimate   =   -1756.63359954 Ry
     estimated scf accuracy    <       0.01723337 Ry

     iteration #  8     ecut=    40.00 Ry     beta= 0.30
     Davidson diagonalization with overlap
     ethr =  6.79E-06,  avg # of iterations =  3.0

     total cpu time spent up to now is      237.0 secs

     total energy              =   -1756.63100577 Ry
     Harris-Foulkes estimate   =   -1756.63163857 Ry
     estimated scf accuracy    <       0.00276891 Ry

     iteration #  9     ecut=    40.00 Ry     beta= 0.30
     Davidson diagonalization with overlap
     ethr =  1.60E-06,  avg # of iterations =  5.0

     total cpu time spent up to now is      240.1 secs

     total energy              =   -1756.63115306 Ry
     Harris-Foulkes estimate   =   -1756.63135433 Ry
     estimated scf accuracy    <       0.00078321 Ry

     iteration # 10     ecut=    40.00 Ry     beta= 0.30
     Davidson diagonalization with overlap
     ethr =  4.53E-07,  avg # of iterations =  4.0

     total cpu time spent up to now is      243.0 secs

     total energy              =   -1756.63107748 Ry
     Harris-Foulkes estimate   =   -1756.63137647 Ry
     estimated scf accuracy    <       0.00196676 Ry

     iteration # 11     ecut=    40.00 Ry     beta= 0.30
     Davidson diagonalization with overlap
     ethr =  4.53E-07,  avg # of iterations =  4.0

     total cpu time spent up to now is      245.8 secs

     total energy              =   -1756.63122966 Ry
     Harris-Foulkes estimate   =   -1756.63124012 Ry
     estimated scf accuracy    <       0.00003272 Ry

     iteration # 12     ecut=    40.00 Ry     beta= 0.30
     Davidson diagonalization with overlap
     ethr =  1.89E-08,  avg # of iterations =  5.0

     total cpu time spent up to now is      249.0 secs

     total energy              =   -1756.63124050 Ry
     Harris-Foulkes estimate   =   -1756.63124172 Ry
     estimated scf accuracy    <       0.00002443 Ry

     iteration # 13     ecut=    40.00 Ry     beta= 0.30
     Davidson diagonalization with overlap
     ethr =  1.41E-08,  avg # of iterations =  4.0

     total cpu time spent up to now is      251.8 secs

     total energy              =   -1756.63123802 Ry
     Harris-Foulkes estimate   =   -1756.63124099 Ry
     estimated scf accuracy    <       0.00002180 Ry

     iteration # 14     ecut=    40.00 Ry     beta= 0.30
     Davidson diagonalization with overlap
     ethr =  1.26E-08,  avg # of iterations =  1.0

     total cpu time spent up to now is      254.3 secs

     total energy              =   -1756.63123894 Ry
     Harris-Foulkes estimate   =   -1756.63123916 Ry
     estimated scf accuracy    <       0.00000114 Ry

     iteration # 15     ecut=    40.00 Ry     beta= 0.30
     Davidson diagonalization with overlap
     ethr =  6.58E-10,  avg # of iterations =  5.0

     total cpu time spent up to now is      257.4 secs

     End of self-consistent calculation

          k = 0.0000 0.0000 0.0000 (  7789 PWs)   bands (ev):

   -40.0993 -40.0991 -39.8873 -39.8873 -39.8872 -39.8872 -26.3779 -16.9242
   -16.9190 -16.3263 -16.3262 -16.3258 -16.3257 -16.2529 -16.2421 -16.0322
   -16.0321 -16.0306 -16.0305 -15.5593 -15.5592 -15.3983 -15.3982 -15.3977
   -15.3977  -6.4630  -6.4629  -6.4037  -5.3744  -5.1965  -5.1965  -5.1404
    -5.1352  -5.1352  -5.1146  -5.1146  -5.0614  -5.0614  -5.0452  -5.0435
    -5.0435  -5.0312  -5.0312  -5.0195  -5.0195  -5.0167  -5.0167  -4.9782
    -4.7375  -4.7014  -4.7014  -4.6766  -4.6765  -4.6564  -4.6564  -4.6490
    -4.6001  -4.6001   5.3885   6.5048   8.0037   8.9168   9.1530  10.2432
    10.9955  11.1193  11.3134  11.7489  11.7490  12.2913  12.2914  12.8763
    12.8890  12.8890  13.0219  13.2028  13.2028  13.3425  13.3426  13.4614
    13.8797  13.8799  14.5886  14.5887  15.4984  15.5118  15.5119  15.9742
    15.9743  17.0925  17.3310  17.4432  17.4542  17.4542  17.5594  17.5594
    17.6153  17.6846  17.6847  17.7867  17.7868  17.9812  19.1015  19.4179

     the Fermi energy is    15.5543 ev

!    total energy              =   -1756.63123907 Ry
     Harris-Foulkes estimate   =   -1756.63123912 Ry
     estimated scf accuracy    <       0.00000007 Ry

     The total energy is the sum of the following terms:

     one-electron contribution =    -403.82933591 Ry
     hartree contribution      =     317.39488262 Ry
     xc contribution           =    -396.83019702 Ry
     ewald contribution        =   -1273.36133153 Ry
     smearing contrib. (-TS)   =      -0.00525722 Ry

     convergence has been achieved in  15 iterations

     Forces acting on atoms (cartesian axes, Ry/au):

     atom    1 type  1   force =     0.00000000   -0.00000000   -0.00000000
     atom    2 type  2   force =     0.00000000   -0.00000000   -0.00389406
     atom    3 type  2   force =     0.00000000   -0.00000000   -0.00389406
     atom    4 type  2   force =     0.00000000    0.00000000   -0.00389406
     atom    5 type  2   force =    -0.00000000    0.00000000    0.00389406
     atom    6 type  2   force =    -0.00000000   -0.00000000    0.00389406
     atom    7 type  2   force =    -0.00000000    0.00000000    0.00389406
     atom    8 type  3   force =     0.00000000    0.00000000   -0.04234000
     atom    9 type  3   force =    -0.00000000    0.00000000    0.04234000
     atom   10 type  3   force =    -0.00000000   -0.00000000    0.00000000
     atom   11 type  3   force =     0.00000000    0.00000000   -0.00000000
     atom   12 type  3   force =    -0.00000000   -0.00000000    0.00000000
     atom   13 type  3   force =     0.00000000    0.00000000   -0.00000000

     Total force =     0.060633     Total SCF correction =     0.001479


     Computing stress (Cartesian axis) and pressure

          total   stress  (Ry/bohr**3)                   (kbar)     P=   -0.78
  -0.00004551   0.00000000  -0.00000000         -6.70      0.00     -0.00
   0.00000000  -0.00004551   0.00000000          0.00     -6.70      0.00
  -0.00000000   0.00000000   0.00007505         -0.00      0.00     11.04


     number of scf cycles    =   4
     number of bfgs steps    =   3

     enthalpy old            =   -1756.5847805788 Ry
     enthalpy new            =   -1756.6312390652 Ry

     CASE: enthalpy_new < enthalpy_old

     new trust radius        =       0.1586999893 bohr
     new conv_thr            =       0.0000004234 Ry

     new unit-cell volume =   1766.56432 a.u.^3 (   261.77782 Ang^3 )
     density =      8.61805 g/cm^3

CELL_PARAMETERS (angstrom)
   5.521713211   0.000000000   0.000000000
  -2.760856606   4.781943914  -0.000000000
  -0.000000000   0.000000000   9.914128021

ATOMIC_POSITIONS (crystal)
Y        0.000000000   0.000000000   0.500000000
Nb       0.500000000  -0.000000000   0.255160904
Nb       0.000000000   0.500000000   0.255160904
Nb       0.500000000   0.500000000   0.255160904
Nb       0.500000000  -0.000000000   0.744839096
Nb       0.000000000   0.500000000   0.744839096
Nb       0.500000000   0.500000000   0.744839096
Sn       0.000000000   0.000000000   0.131318337
Sn      -0.000000000  -0.000000000   0.868681663
Sn       0.666667000   0.333333000  -0.000000000
Sn       0.333333000   0.666667000  -0.000000000
Sn       0.666667000   0.333333000   0.500000000
Sn       0.333333000   0.666667000   0.500000000



     Writing output data file __prefix__.save/
     NEW-OLD atomic charge density approx. for the potential

     Check: negative/imaginary core charge=   -0.000001    0.000000
     extrapolated charge  171.93711, renormalised to  173.00000

     total cpu time spent up to now is      287.6 secs

     Self-consistent Calculation

     iteration #  1     ecut=    40.00 Ry     beta= 0.30
     Davidson diagonalization with overlap
     ethr =  1.00E-06,  avg # of iterations = 12.0

     total cpu time spent up to now is      292.9 secs

     total energy              =   -1756.55261555 Ry
     Harris-Foulkes estimate   =   -1758.78564638 Ry
     estimated scf accuracy    <       0.14827930 Ry

     iteration #  2     ecut=    40.00 Ry     beta= 0.30
     Davidson diagonalization with overlap
     ethr =  8.57E-05,  avg # of iterations =  4.0

     total cpu time spent up to now is      296.3 secs

     total energy              =   -1756.60881886 Ry
     Harris-Foulkes estimate   =   -1756.70196318 Ry
     estimated scf accuracy    <       0.50040861 Ry

     iteration #  3     ecut=    40.00 Ry     beta= 0.30
     Davidson diagonalization with overlap
     ethr =  8.57E-05,  avg # of iterations =  5.0

     total cpu time spent up to now is      299.4 secs

     total energy              =   -1756.63600105 Ry
     Harris-Foulkes estimate   =   -1756.63961005 Ry
     estimated scf accuracy    <       0.02805594 Ry

     iteration #  4     ecut=    40.00 Ry     beta= 0.30
     Davidson diagonalization with overlap
     ethr =  1.62E-05,  avg # of iterations =  2.0

     total cpu time spent up to now is      302.0 secs

     total energy              =   -1756.63688771 Ry
     Harris-Foulkes estimate   =   -1756.63759564 Ry
     estimated scf accuracy    <       0.00508573 Ry

     iteration #  5     ecut=    40.00 Ry     beta= 0.30
     Davidson diagonalization with overlap
     ethr =  2.94E-06,  avg # of iterations =  4.0

     total cpu time spent up to now is      304.9 secs

     total energy              =   -1756.63672596 Ry
     Harris-Foulkes estimate   =   -1756.63712869 Ry
     estimated scf accuracy    <       0.00232478 Ry

     iteration #  6     ecut=    40.00 Ry     beta= 0.30
     Davidson diagonalization with overlap
     ethr =  1.34E-06,  avg # of iterations =  3.0

     total cpu time spent up to now is      307.6 secs

     total energy              =   -1756.63642151 Ry
     Harris-Foulkes estimate   =   -1756.63680551 Ry
     estimated scf accuracy    <       0.00135411 Ry

     iteration #  7     ecut=    40.00 Ry     beta= 0.30
     Davidson diagonalization with overlap
     ethr =  7.83E-07,  avg # of iterations =  4.0

     total cpu time spent up to now is      310.7 secs

     total energy              =   -1756.63665126 Ry
     Harris-Foulkes estimate   =   -1756.63666321 Ry
     estimated scf accuracy    <       0.00007947 Ry

     iteration #  8     ecut=    40.00 Ry     beta= 0.30
     Davidson diagonalization with overlap
     ethr =  4.59E-08,  avg # of iterations =  4.0

     total cpu time spent up to now is      313.8 secs

     total energy              =   -1756.63665640 Ry
     Harris-Foulkes estimate   =   -1756.63666878 Ry
     estimated scf accuracy    <       0.00006198 Ry

     iteration #  9     ecut=    40.00 Ry     beta= 0.30
     Davidson diagonalization with overlap
     ethr =  3.58E-08,  avg # of iterations =  3.0

     total cpu time spent up to now is      316.6 secs

     total energy              =   -1756.63666045 Ry
     Harris-Foulkes estimate   =   -1756.63666072 Ry
     estimated scf accuracy    <       0.00000302 Ry

     iteration # 10     ecut=    40.00 Ry     beta= 0.30
     Davidson diagonalization with overlap
     ethr =  1.75E-09,  avg # of iterations =  4.0

     total cpu time spent up to now is      319.7 secs

     End of self-consistent calculation

          k = 0.0000 0.0000 0.0000 (  7789 PWs)   bands (ev):

   -39.9579 -39.9577 -39.7298 -39.7298 -39.7297 -39.7297 -26.2304 -16.8217
   -16.8168 -16.1979 -16.1978 -16.1974 -16.1974 -16.1138 -16.1035 -15.8801
   -15.8800 -15.8784 -15.8783 -15.3887 -15.3886 -15.2112 -15.2111 -15.2106
   -15.2106  -6.3287  -6.3287  -6.2551  -5.4719  -5.2091  -5.2091  -5.0044
    -5.0044  -4.9938  -4.9778  -4.9778  -4.9717  -4.9717  -4.9652  -4.9652
    -4.9505  -4.9505  -4.9119  -4.9119  -4.8923  -4.8762  -4.8762  -4.8615
    -4.5564  -4.5207  -4.5207  -4.5029  -4.5029  -4.4711  -4.4711  -4.4612
    -4.4235  -4.4235   5.3654   6.5199   8.1933   9.1385   9.3463  10.3910
    11.2220  11.2425  11.3848  11.8827  11.8828  12.3232  12.3233  12.6674
    13.0002  13.0002  13.0825  13.3017  13.3018  13.4302  13.4303  13.5196
    13.9826  13.9828  14.7411  14.7412  15.7309  15.7638  15.7638  16.1100
    16.1101  17.1201  17.5305  17.6367  17.6732  17.6732  17.7138  17.7785
    17.7786  17.9270  17.9271  18.0096  18.0097  18.0920  18.9394  19.4146

     the Fermi energy is    15.8018 ev

!    total energy              =   -1756.63666077 Ry
     Harris-Foulkes estimate   =   -1756.63666107 Ry
     estimated scf accuracy    <       0.00000042 Ry

     The total energy is the sum of the following terms:

     one-electron contribution =    -401.80248273 Ry
     hartree contribution      =     317.25154727 Ry
     xc contribution           =    -396.92425645 Ry
     ewald contribution        =   -1275.15638632 Ry
     smearing contrib. (-TS)   =      -0.00508254 Ry

     convergence has been achieved in  10 iterations

     Forces acting on atoms (cartesian axes, Ry/au):

     atom    1 type  1   force =     0.00000000   -0.00000000    0.00000000
     atom    2 type  2   force =     0.00000000   -0.00000000   -0.00822041
     atom    3 type  2   force =     0.00000000    0.00000000   -0.00822041
     atom    4 type  2   force =    -0.00000000   -0.00000000   -0.00822041
     atom    5 type  2   force =    -0.00000000    0.00000000    0.00822041
     atom    6 type  2   force =    -0.00000000   -0.00000000    0.00822041
     atom    7 type  2   force =     0.00000000    0.00000000    0.00822041
     atom    8 type  3   force =    -0.00000000    0.00000000    0.01936466
     atom    9 type  3   force =     0.00000000   -0.00000000   -0.01936466
     atom   10 type  3   force =     0.00000000   -0.00000000    0.00000000
     atom   11 type  3   force =     0.00000000    0.00000000   -0.00000000
     atom   12 type  3   force =     0.00000000    0.00000000    0.00000000
     atom   13 type  3   force =    -0.00000000   -0.00000000    0.00000000

     Total force =     0.033992     Total SCF correction =     0.000852


     Computing stress (Cartesian axis) and pressure

          total   stress  (Ry/bohr**3)                   (kbar)     P=    5.74
   0.00002710   0.00000000  -0.00000000          3.99      0.00     -0.00
   0.00000000   0.00002710   0.00000000          0.00      3.99      0.00
  -0.00000000   0.00000000   0.00006285         -0.00      0.00      9.24


     number of scf cycles    =   5
     number of bfgs steps    =   4

     enthalpy old            =   -1756.6312390652 Ry
     enthalpy new            =   -1756.6366607730 Ry

     CASE: enthalpy_new < enthalpy_old

     new trust radius        =       0.0446384080 bohr
     new conv_thr            =       0.0000001936 Ry

     new unit-cell volume =   1772.56300 a.u.^3 (   262.66673 Ang^3 )
     density =      8.58889 g/cm^3

CELL_PARAMETERS (angstrom)
   5.532737836   0.000000000   0.000000000
  -2.766368918   4.791491518  -0.000000000
  -0.000000000   0.000000000   9.908188418

ATOMIC_POSITIONS (crystal)
Y        0.000000000   0.000000000   0.500000000
Nb       0.500000000  -0.000000000   0.254695707
Nb       0.000000000   0.500000000   0.254695707
Nb       0.500000000   0.500000000   0.254695707
Nb       0.500000000   0.000000000   0.745304293
Nb       0.000000000   0.500000000   0.745304293
Nb       0.500000000   0.500000000   0.745304293
Sn       0.000000000   0.000000000   0.133700960
Sn      -0.000000000  -0.000000000   0.866299040
Sn       0.666667000   0.333333000   0.000000000
Sn       0.333333000   0.666667000  -0.000000000
Sn       0.666667000   0.333333000   0.500000000
Sn       0.333333000   0.666667000   0.500000000



     Writing output data file __prefix__.save/
     NEW-OLD atomic charge density approx. for the potential

     Check: negative/imaginary core charge=   -0.000001    0.000000
     extrapolated charge  173.56509, renormalised to  173.00000

     total cpu time spent up to now is      349.9 secs

     Self-consistent Calculation

     iteration #  1     ecut=    40.00 Ry     beta= 0.30
     Davidson diagonalization with overlap
     ethr =  1.00E-06,  avg # of iterations = 11.0

     total cpu time spent up to now is      354.5 secs

     total energy              =   -1756.60349849 Ry
     Harris-Foulkes estimate   =   -1755.50317043 Ry
     estimated scf accuracy    <       0.06561031 Ry

     iteration #  2     ecut=    40.00 Ry     beta= 0.30
     Davidson diagonalization with overlap
     ethr =  3.79E-05,  avg # of iterations =  4.0

     total cpu time spent up to now is      357.8 secs

     total energy              =   -1756.62662121 Ry
     Harris-Foulkes estimate   =   -1756.66113660 Ry
     estimated scf accuracy    <       0.17511366 Ry

     iteration #  3     ecut=    40.00 Ry     beta= 0.30
     Davidson diagonalization with overlap
     ethr =  3.79E-05,  avg # of iterations =  5.0

     total cpu time spent up to now is      360.9 secs

     total energy              =   -1756.63922674 Ry
     Harris-Foulkes estimate   =   -1756.64104434 Ry
     estimated scf accuracy    <       0.01335436 Ry

     iteration #  4     ecut=    40.00 Ry     beta= 0.30
     Davidson diagonalization with overlap
     ethr =  7.72E-06,  avg # of iterations =  2.0

     total cpu time spent up to now is      363.5 secs

     total energy              =   -1756.63789544 Ry
     Harris-Foulkes estimate   =   -1756.63949549 Ry
     estimated scf accuracy    <       0.00946320 Ry

     iteration #  5     ecut=    40.00 Ry     beta= 0.30
     Davidson diagonalization with overlap
     ethr =  5.47E-06,  avg # of iterations =  3.0

     total cpu time spent up to now is      366.2 secs

     total energy              =   -1756.63711900 Ry
     Harris-Foulkes estimate   =   -1756.63812934 Ry
     estimated scf accuracy    <       0.00397053 Ry

     iteration #  6     ecut=    40.00 Ry     beta= 0.30
     Davidson diagonalization with overlap
     ethr =  2.30E-06,  avg # of iterations =  4.0

     total cpu time spent up to now is      369.2 secs

     total energy              =   -1756.63762347 Ry
     Harris-Foulkes estimate   =   -1756.63779917 Ry
     estimated scf accuracy    <       0.00072930 Ry

     iteration #  7     ecut=    40.00 Ry     beta= 0.30
     Davidson diagonalization with overlap
     ethr =  4.22E-07,  avg # of iterations =  3.0

     total cpu time spent up to now is      371.9 secs

     total energy              =   -1756.63778205 Ry
     Harris-Foulkes estimate   =   -1756.63776936 Ry
     estimated scf accuracy    <       0.00025573 Ry

     iteration #  8     ecut=    40.00 Ry     beta= 0.30
     Davidson diagonalization with overlap
     ethr =  1.48E-07,  avg # of iterations =  3.0

     total cpu time spent up to now is      374.7 secs

     total energy              =   -1756.63763551 Ry
     Harris-Foulkes estimate   =   -1756.63779398 Ry
     estimated scf accuracy    <       0.00052665 Ry

     iteration #  9     ecut=    40.00 Ry     beta= 0.30
     Davidson diagonalization with overlap
     ethr =  1.48E-07,  avg # of iterations =  4.0

     total cpu time spent up to now is      377.7 secs

     total energy              =   -1756.63774704 Ry
     Harris-Foulkes estimate   =   -1756.63776442 Ry
     estimated scf accuracy    <       0.00033871 Ry

     iteration # 10     ecut=    40.00 Ry     beta= 0.30
     Davidson diagonalization with overlap
     ethr =  1.48E-07,  avg # of iterations =  1.0

     total cpu time spent up to now is      380.2 secs

     total energy              =   -1756.63772117 Ry
     Harris-Foulkes estimate   =   -1756.63775059 Ry
     estimated scf accuracy    <       0.00017422 Ry

     iteration # 11     ecut=    40.00 Ry     beta= 0.30
     Davidson diagonalization with overlap
     ethr =  1.01E-07,  avg # of iterations =  2.0

     total cpu time spent up to now is      382.9 secs

     total energy              =   -1756.63773462 Ry
     Harris-Foulkes estimate   =   -1756.63773462 Ry
     estimated scf accuracy    <       0.00000110 Ry

     iteration # 12     ecut=    40.00 Ry     beta= 0.30
     Davidson diagonalization with overlap
     ethr =  6.37E-10,  avg # of iterations =  5.0

     total cpu time spent up to now is      386.2 secs

     total energy              =   -1756.63773468 Ry
     Harris-Foulkes estimate   =   -1756.63773498 Ry
     estimated scf accuracy    <       0.00000325 Ry

     iteration # 13     ecut=    40.00 Ry     beta= 0.30
     Davidson diagonalization with overlap
     ethr =  6.37E-10,  avg # of iterations =  4.0

     total cpu time spent up to now is      389.0 secs

     total energy              =   -1756.63773447 Ry
     Harris-Foulkes estimate   =   -1756.63773477 Ry
     estimated scf accuracy    <       0.00000154 Ry

     iteration # 14     ecut=    40.00 Ry     beta= 0.30
     Davidson diagonalization with overlap
     ethr =  6.37E-10,  avg # of iterations =  3.0

     total cpu time spent up to now is      391.6 secs

     End of self-consistent calculation

          k = 0.0000 0.0000 0.0000 (  7789 PWs)   bands (ev):

   -40.0286 -40.0284 -39.8055 -39.8054 -39.8054 -39.8054 -26.3122 -16.8793
   -16.8745 -16.2644 -16.2643 -16.2639 -16.2638 -16.1827 -16.1725 -15.9532
   -15.9531 -15.9516 -15.9515 -15.4682 -15.4681 -15.2950 -15.2950 -15.2945
   -15.2944  -6.4041  -6.4041  -6.3364  -5.4611  -5.2289  -5.2289  -5.0649
    -5.0649  -5.0566  -5.0332  -5.0332  -5.0210  -5.0210  -5.0174  -5.0174
    -4.9997  -4.9997  -4.9757  -4.9757  -4.9571  -4.9403  -4.9403  -4.9264
    -4.6403  -4.6048  -4.6048  -4.5855  -4.5855  -4.5565  -4.5565  -4.5471
    -4.5069  -4.5069   5.3526   6.4953   8.1069   9.0446   9.2800  10.3267
    11.1294  11.1886  11.3362  11.8292  11.8293  12.2883  12.2884  12.7036
    12.9408  12.9408  13.0329  13.2453  13.2453  13.3758  13.3758  13.4642
    13.9216  13.9218  14.6813  14.6814  15.6378  15.6656  15.6657  16.0405
    16.0406  17.0606  17.4462  17.5523  17.5822  17.5823  17.6575  17.6860
    17.6861  17.8325  17.8326  17.9190  17.9191  18.0284  18.9400  19.3743

     the Fermi energy is    15.7046 ev

!    total energy              =   -1756.63773459 Ry
     Harris-Foulkes estimate   =   -1756.63773465 Ry
     estimated scf accuracy    <       0.00000008 Ry

     The total energy is the sum of the following terms:

     one-electron contribution =    -403.63157037 Ry
     hartree contribution      =     317.72355056 Ry
     xc contribution           =    -396.87697336 Ry
     ewald contribution        =   -1273.84760528 Ry
     smearing contrib. (-TS)   =      -0.00513615 Ry

     convergence has been achieved in  14 iterations

     Forces acting on atoms (cartesian axes, Ry/au):

     atom    1 type  1   force =    -0.00000000   -0.00000000    0.00000000
     atom    2 type  2   force =     0.00000000   -0.00000000   -0.00457875
     atom    3 type  2   force =     0.00000000   -0.00000000   -0.00457875
     atom    4 type  2   force =    -0.00000000    0.00000000   -0.00457875
     atom    5 type  2   force =    -0.00000000    0.00000000    0.00457875
     atom    6 type  2   force =    -0.00000000    0.00000000    0.00457875
     atom    7 type  2   force =    -0.00000000   -0.00000000    0.00457875
     atom    8 type  3   force =     0.00000000    0.00000000   -0.00220430
     atom    9 type  3   force =    -0.00000000   -0.00000000    0.00220430
     atom   10 type  3   force =    -0.00000000    0.00000000    0.00000000
     atom   11 type  3   force =     0.00000000    0.00000000   -0.00000000
     atom   12 type  3   force =     0.00000000    0.00000000    0.00000000
     atom   13 type  3   force =     0.00000000    0.00000000    0.00000000

     Total force =     0.011641     Total SCF correction =     0.000416


     Computing stress (Cartesian axis) and pressure

          total   stress  (Ry/bohr**3)                   (kbar)     P=   -0.08
  -0.00000687  -0.00000000  -0.00000000         -1.01     -0.00     -0.00
  -0.00000000  -0.00000687   0.00000000         -0.00     -1.01      0.00
  -0.00000000  -0.00000000   0.00001212         -0.00     -0.00      1.78


     number of scf cycles    =   6
     number of bfgs steps    =   5

     enthalpy old            =   -1756.6366607730 Ry
     enthalpy new            =   -1756.6377345913 Ry

     CASE: enthalpy_new < enthalpy_old

     new trust radius        =       0.0056573785 bohr
     new conv_thr            =       0.0000000458 Ry

     new unit-cell volume =   1772.59655 a.u.^3 (   262.67171 Ang^3 )
     density =      8.58872 g/cm^3

CELL_PARAMETERS (angstrom)
   5.531241026   0.000000000   0.000000000
  -2.765620513   4.790195244  -0.000000000
  -0.000000000   0.000000000   9.913739327

ATOMIC_POSITIONS (crystal)
Y        0.000000000   0.000000000   0.500000000
Nb       0.500000000  -0.000000000   0.254393557
Nb       0.000000000   0.500000000   0.254393557
Nb       0.500000000   0.500000000   0.254393557
Nb       0.500000000   0.000000000   0.745606443
Nb       0.000000000   0.500000000   0.745606443
Nb       0.500000000   0.500000000   0.745606443
Sn       0.000000000   0.000000000   0.133502810
Sn      -0.000000000  -0.000000000   0.866497190
Sn       0.666667000   0.333333000   0.000000000
Sn       0.333333000   0.666667000  -0.000000000
Sn       0.666667000   0.333333000   0.500000000
Sn       0.333333000   0.666667000   0.500000000



     Writing output data file __prefix__.save/
     NEW-OLD atomic charge density approx. for the potential

     Check: negative/imaginary core charge=   -0.000001    0.000000
     extrapolated charge  173.00316, renormalised to  173.00000

     total cpu time spent up to now is      421.9 secs

     Self-consistent Calculation

     iteration #  1     ecut=    40.00 Ry     beta= 0.30
     Davidson diagonalization with overlap
     ethr =  1.00E-06,  avg # of iterations =  4.0

     Threshold (ethr) on eigenvalues was too large:
     Diagonalizing with lowered threshold

     Davidson diagonalization with overlap
     ethr =  3.04E-08,  avg # of iterations =  2.0

     total cpu time spent up to now is      427.7 secs

     total energy              =   -1756.63787142 Ry
     Harris-Foulkes estimate   =   -1756.63151393 Ry
     estimated scf accuracy    <       0.00005331 Ry

     iteration #  2     ecut=    40.00 Ry     beta= 0.30
     Davidson diagonalization with overlap
     ethr =  3.08E-08,  avg # of iterations =  5.0

     total cpu time spent up to now is      430.9 secs

     total energy              =   -1756.63787491 Ry
     Harris-Foulkes estimate   =   -1756.63789897 Ry
     estimated scf accuracy    <       0.00011970 Ry

     iteration #  3     ecut=    40.00 Ry     beta= 0.30
     Davidson diagonalization with overlap
     ethr =  3.08E-08,  avg # of iterations =  4.0

     total cpu time spent up to now is      433.9 secs

     total energy              =   -1756.63788731 Ry
     Harris-Foulkes estimate   =   -1756.63788835 Ry
     estimated scf accuracy    <       0.00000848 Ry

     iteration #  4     ecut=    40.00 Ry     beta= 0.30
     Davidson diagonalization with overlap
     ethr =  4.90E-09,  avg # of iterations =  2.0

     total cpu time spent up to now is      436.5 secs

     total energy              =   -1756.63788811 Ry
     Harris-Foulkes estimate   =   -1756.63788794 Ry
     estimated scf accuracy    <       0.00000172 Ry

     iteration #  5     ecut=    40.00 Ry     beta= 0.30
     Davidson diagonalization with overlap
     ethr =  9.93E-10,  avg # of iterations =  4.0

     total cpu time spent up to now is      439.5 secs

     total energy              =   -1756.63788826 Ry
     Harris-Foulkes estimate   =   -1756.63788829 Ry
     estimated scf accuracy    <       0.00000051 Ry

     iteration #  6     ecut=    40.00 Ry     beta= 0.30
     Davidson diagonalization with overlap
     ethr =  2.93E-10,  avg # of iterations =  3.0

     total cpu time spent up to now is      442.2 secs

     total energy              =   -1756.63788826 Ry
     Harris-Foulkes estimate   =   -1756.63788828 Ry
     estimated scf accuracy    <       0.00000009 Ry

     iteration #  7     ecut=    40.00 Ry     beta= 0.30
     Davidson diagonalization with overlap
     ethr =  5.36E-11,  avg # of iterations =  4.0

     total cpu time spent up to now is      445.3 secs

     End of self-consistent calculation

          k = 0.0000 0.0000 0.0000 (  7789 PWs)   bands (ev):

   -40.0284 -40.0282 -39.8046 -39.8046 -39.8045 -39.8045 -26.3138 -16.8806
   -16.8758 -16.2647 -16.2647 -16.2642 -16.2642 -16.1821 -16.1720 -15.9522
   -15.9521 -15.9505 -15.9504 -15.4668 -15.4667 -15.2930 -15.2929 -15.2925
   -15.2924  -6.4055  -6.4055  -6.3380  -5.4655  -5.2319  -5.2319  -5.0625
    -5.0625  -5.0528  -5.0299  -5.0299  -5.0232  -5.0232  -5.0188  -5.0188
    -5.0015  -5.0015  -4.9717  -4.9717  -4.9530  -4.9376  -4.9376  -4.9271
    -4.6430  -4.6075  -4.6075  -4.5883  -4.5883  -4.5592  -4.5592  -4.5497
    -4.5096  -4.5096   5.3474   6.4964   8.1045   9.0411   9.2880  10.3278
    11.1304  11.1903  11.3337  11.8348  11.8348  12.2842  12.2843  12.7007
    12.9398  12.9398  13.0286  13.2436  13.2436  13.3743  13.3743  13.4584
    13.9165  13.9167  14.6881  14.6882  15.6414  15.6697  15.6698  16.0404
    16.0405  17.0519  17.4499  17.5551  17.5856  17.5857  17.6641  17.6887
    17.6888  17.8377  17.8377  17.9235  17.9236  18.0269  18.9335  19.3681

     the Fermi energy is    15.7087 ev

!    total energy              =   -1756.63788827 Ry
     Harris-Foulkes estimate   =   -1756.63788828 Ry
     estimated scf accuracy    <       0.00000002 Ry

     The total energy is the sum of the following terms:

     one-electron contribution =    -404.01128572 Ry
     hartree contribution      =     317.91335834 Ry
     xc contribution           =    -396.87775880 Ry
     ewald contribution        =   -1273.65707039 Ry
     smearing contrib. (-TS)   =      -0.00513169 Ry

     convergence has been achieved in   7 iterations

     Forces acting on atoms (cartesian axes, Ry/au):

     atom    1 type  1   force =     0.00000000    0.00000000    0.00000000
     atom    2 type  2   force =     0.00000000    0.00000000   -0.00288708
     atom    3 type  2   force =    -0.00000000   -0.00000000   -0.00288708
     atom    4 type  2   force =    -0.00000000   -0.00000000   -0.00288708
     atom    5 type  2   force =    -0.00000000    0.00000000    0.00288708
     atom    6 type  2   force =     0.00000000    0.00000000    0.00288708
     atom    7 type  2   force =    -0.00000000   -0.00000000    0.00288708
     atom    8 type  3   force =     0.00000000    0.00000000   -0.00172698
     atom    9 type  3   force =    -0.00000000   -0.00000000    0.00172698
     atom   10 type  3   force =    -0.00000000    0.00000000   -0.00000000
     atom   11 type  3   force =     0.00000000    0.00000000    0.00000000
     atom   12 type  3   force =     0.00000000    0.00000000   -0.00000000
     atom   13 type  3   force =    -0.00000000   -0.00000000   -0.00000000

     Total force =     0.007482     Total SCF correction =     0.000308


     Computing stress (Cartesian axis) and pressure

          total   stress  (Ry/bohr**3)                   (kbar)     P=   -0.21
  -0.00000291  -0.00000000  -0.00000000         -0.43     -0.00     -0.00
   0.00000000  -0.00000291  -0.00000000          0.00     -0.43     -0.00
  -0.00000000  -0.00000000   0.00000153         -0.00     -0.00      0.23


     number of scf cycles    =   7
     number of bfgs steps    =   6

     enthalpy old            =   -1756.6377345913 Ry
     enthalpy new            =   -1756.6378882672 Ry

     CASE: enthalpy_new < enthalpy_old

     new trust radius        =       0.0062266027 bohr
     new conv_thr            =       0.0000000154 Ry

     new unit-cell volume =   1772.50659 a.u.^3 (   262.65837 Ang^3 )
     density =      8.58916 g/cm^3

CELL_PARAMETERS (angstrom)
   5.529983606   0.000000000   0.000000000
  -2.764991803   4.789106286  -0.000000000
  -0.000000000  -0.000000000   9.917744892

ATOMIC_POSITIONS (crystal)
Y        0.000000000   0.000000000   0.500000000
Nb       0.500000000   0.000000000   0.254061193
Nb      -0.000000000   0.500000000   0.254061193
Nb       0.500000000   0.500000000   0.254061193
Nb       0.500000000   0.000000000   0.745938807
Nb      -0.000000000   0.500000000   0.745938807
Nb       0.500000000   0.500000000   0.745938807
Sn       0.000000000   0.000000000   0.133268675
Sn      -0.000000000  -0.000000000   0.866731325
Sn       0.666667000   0.333333000   0.000000000
Sn       0.333333000   0.666667000  -0.000000000
Sn       0.666667000   0.333333000   0.500000000
Sn       0.333333000   0.666667000   0.500000000



     Writing output data file __prefix__.save/
     NEW-OLD atomic charge density approx. for the potential

     Check: negative/imaginary core charge=   -0.000001    0.000000
     extrapolated charge  172.99153, renormalised to  173.00000

     total cpu time spent up to now is      475.4 secs

     Self-consistent Calculation

     iteration #  1     ecut=    40.00 Ry     beta= 0.30
     Davidson diagonalization with overlap
     ethr =  1.00E-06,  avg # of iterations =  4.0

     Threshold (ethr) on eigenvalues was too large:
     Diagonalizing with lowered threshold

     Davidson diagonalization with overlap
     ethr =  7.21E-08,  avg # of iterations =  2.0

     total cpu time spent up to now is      481.2 secs

     total energy              =   -1756.63792332 Ry
     Harris-Foulkes estimate   =   -1756.65510427 Ry
     estimated scf accuracy    <       0.00012417 Ry

     iteration #  2     ecut=    40.00 Ry     beta= 0.30
     Davidson diagonalization with overlap
     ethr =  7.18E-08,  avg # of iterations =  5.0

     total cpu time spent up to now is      484.4 secs

     total energy              =   -1756.63792662 Ry
     Harris-Foulkes estimate   =   -1756.63801965 Ry
     estimated scf accuracy    <       0.00058543 Ry

     iteration #  3     ecut=    40.00 Ry     beta= 0.30
     Davidson diagonalization with overlap
     ethr =  7.18E-08,  avg # of iterations =  5.0

     total cpu time spent up to now is      487.5 secs

     total energy              =   -1756.63797012 Ry
     Harris-Foulkes estimate   =   -1756.63797055 Ry
     estimated scf accuracy    <       0.00000459 Ry

     iteration #  4     ecut=    40.00 Ry     beta= 0.30
     Davidson diagonalization with overlap
     ethr =  2.66E-09,  avg # of iterations =  4.0

     total cpu time spent up to now is      490.5 secs

     total energy              =   -1756.63797089 Ry
     Harris-Foulkes estimate   =   -1756.63797079 Ry
     estimated scf accuracy    <       0.00000215 Ry

     iteration #  5     ecut=    40.00 Ry     beta= 0.30
     Davidson diagonalization with overlap
     ethr =  1.24E-09,  avg # of iterations =  4.0

     total cpu time spent up to now is      493.3 secs

     total energy              =   -1756.63797105 Ry
     Harris-Foulkes estimate   =   -1756.63797106 Ry
     estimated scf accuracy    <       0.00000060 Ry

     iteration #  6     ecut=    40.00 Ry     beta= 0.30
     Davidson diagonalization with overlap
     ethr =  3.49E-10,  avg # of iterations =  3.0

     total cpu time spent up to now is      496.0 secs

     total energy              =   -1756.63797108 Ry
     Harris-Foulkes estimate   =   -1756.63797109 Ry
     estimated scf accuracy    <       0.00000004 Ry

     iteration #  7     ecut=    40.00 Ry     beta= 0.30
     Davidson diagonalization with overlap
     ethr =  2.28E-11,  avg # of iterations = 15.0

     total cpu time spent up to now is      500.0 secs

     total energy              =   -1756.63797109 Ry
     Harris-Foulkes estimate   =   -1756.63797109 Ry
     estimated scf accuracy    <       0.00000002 Ry

     iteration #  8     ecut=    40.00 Ry     beta= 0.30
     Davidson diagonalization with overlap
     ethr =  1.04E-11,  avg # of iterations =  4.0

     total cpu time spent up to now is      502.8 secs

     End of self-consistent calculation

          k = 0.0000 0.0000 0.0000 (  7789 PWs)   bands (ev):

   -40.0262 -40.0261 -39.8019 -39.8019 -39.8018 -39.8018 -26.3154 -16.8797
   -16.8749 -16.2631 -16.2631 -16.2627 -16.2626 -16.1797 -16.1696 -15.9494
   -15.9493 -15.9477 -15.9476 -15.4637 -15.4636 -15.2893 -15.2893 -15.2888
   -15.2888  -6.4065  -6.4065  -6.3394  -5.4705  -5.2349  -5.2349  -5.0582
    -5.0582  -5.0469  -5.0250  -5.0250  -5.0248  -5.0248  -5.0194  -5.0194
    -5.0023  -5.0023  -4.9657  -4.9657  -4.9469  -4.9332  -4.9332  -4.9267
    -4.6449  -4.6093  -4.6093  -4.5903  -4.5902  -4.5610  -4.5610  -4.5513
    -4.5113  -4.5113   5.3422   6.4993   8.1041   9.0383   9.2966  10.3305
    11.1317  11.1932  11.3334  11.8414  11.8415  12.2804  12.2805  12.6974
    12.9406  12.9407  13.0268  13.2439  13.2439  13.3747  13.3748  13.4554
    13.9118  13.9120  14.6957  14.6958  15.6460  15.6751  15.6752  16.0421
    16.0422  17.0473  17.4547  17.5592  17.5903  17.5903  17.6735  17.6927
    17.6927  17.8436  17.8436  17.9291  17.9291  18.0278  18.9300  19.3640

     the Fermi energy is    15.7139 ev

!    total energy              =   -1756.63797109 Ry
     Harris-Foulkes estimate   =   -1756.63797109 Ry
     estimated scf accuracy    <          2.2E-09 Ry

     The total energy is the sum of the following terms:

     one-electron contribution =    -404.40665258 Ry
     hartree contribution      =     318.11883829 Ry
     xc contribution           =    -396.87921833 Ry
     ewald contribution        =   -1273.46581441 Ry
     smearing contrib. (-TS)   =      -0.00512406 Ry

     convergence has been achieved in   8 iterations

     Forces acting on atoms (cartesian axes, Ry/au):

     atom    1 type  1   force =     0.00000000    0.00000000    0.00000000
     atom    2 type  2   force =     0.00000000    0.00000000   -0.00103448
     atom    3 type  2   force =    -0.00000000   -0.00000000   -0.00103448
     atom    4 type  2   force =     0.00000000    0.00000000   -0.00103448
     atom    5 type  2   force =    -0.00000000   -0.00000000    0.00103448
     atom    6 type  2   force =    -0.00000000    0.00000000    0.00103448
     atom    7 type  2   force =    -0.00000000   -0.00000000    0.00103448
     atom    8 type  3   force =     0.00000000    0.00000000   -0.00057833
     atom    9 type  3   force =    -0.00000000   -0.00000000    0.00057833
     atom   10 type  3   force =    -0.00000000   -0.00000000   -0.00000000
     atom   11 type  3   force =     0.00000000   -0.00000000    0.00000000
     atom   12 type  3   force =     0.00000000   -0.00000000   -0.00000000
     atom   13 type  3   force =    -0.00000000   -0.00000000    0.00000000

     Total force =     0.002663     Total SCF correction =     0.000079


     Computing stress (Cartesian axis) and pressure

          total   stress  (Ry/bohr**3)                   (kbar)     P=   -0.22
   0.00000029   0.00000000  -0.00000000          0.04      0.00     -0.00
   0.00000000   0.00000029  -0.00000000          0.00      0.04     -0.00
  -0.00000000  -0.00000000  -0.00000512         -0.00     -0.00     -0.75


     number of scf cycles    =   8
     number of bfgs steps    =   7

     enthalpy old            =   -1756.6378882672 Ry
     enthalpy new            =   -1756.6379710906 Ry

     CASE: enthalpy_new < enthalpy_old

     new trust radius        =       0.0032534000 bohr
     new conv_thr            =       0.0000000100 Ry

     new unit-cell volume =   1772.38299 a.u.^3 (   262.64006 Ang^3 )
     density =      8.58976 g/cm^3

CELL_PARAMETERS (angstrom)
   5.529788110   0.000000000  -0.000000000
  -2.764894055   4.788936981  -0.000000000
  -0.000000000  -0.000000000   9.917754533

ATOMIC_POSITIONS (crystal)
Y        0.000000000  -0.000000000   0.500000000
Nb       0.500000000   0.000000000   0.253887602
Nb      -0.000000000   0.500000000   0.253887602
Nb       0.500000000   0.500000000   0.253887602
Nb       0.500000000   0.000000000   0.746112398
Nb      -0.000000000   0.500000000   0.746112398
Nb       0.500000000   0.500000000   0.746112398
Sn       0.000000000   0.000000000   0.133192281
Sn      -0.000000000  -0.000000000   0.866807719
Sn       0.666667000   0.333333000  -0.000000000
Sn       0.333333000   0.666667000  -0.000000000
Sn       0.666667000   0.333333000   0.500000000
Sn       0.333333000   0.666667000   0.500000000



     Writing output data file __prefix__.save/
     NEW-OLD atomic charge density approx. for the potential

     Check: negative/imaginary core charge=   -0.000001    0.000000
     extrapolated charge  172.98836, renormalised to  173.00000

     total cpu time spent up to now is      532.7 secs

     Self-consistent Calculation

     iteration #  1     ecut=    40.00 Ry     beta= 0.30
     Davidson diagonalization with overlap
     ethr =  1.00E-06,  avg # of iterations =  3.0

     Threshold (ethr) on eigenvalues was too large:
     Diagonalizing with lowered threshold

     Davidson diagonalization with overlap
     ethr =  2.37E-08,  avg # of iterations =  3.0

     total cpu time spent up to now is      538.3 secs

     total energy              =   -1756.63796136 Ry
     Harris-Foulkes estimate   =   -1756.66152650 Ry
     estimated scf accuracy    <       0.00004737 Ry

     iteration #  2     ecut=    40.00 Ry     beta= 0.30
     Davidson diagonalization with overlap
     ethr =  2.74E-08,  avg # of iterations =  5.0

     total cpu time spent up to now is      541.6 secs

     total energy              =   -1756.63796516 Ry
     Harris-Foulkes estimate   =   -1756.63800614 Ry
     estimated scf accuracy    <       0.00027886 Ry

     iteration #  3     ecut=    40.00 Ry     beta= 0.30
     Davidson diagonalization with overlap
     ethr =  2.74E-08,  avg # of iterations =  4.0

     total cpu time spent up to now is      544.6 secs

     total energy              =   -1756.63798252 Ry
     Harris-Foulkes estimate   =   -1756.63798295 Ry
     estimated scf accuracy    <       0.00000364 Ry

     iteration #  4     ecut=    40.00 Ry     beta= 0.30
     Davidson diagonalization with overlap
     ethr =  2.11E-09,  avg # of iterations =  3.0

     total cpu time spent up to now is      547.4 secs

     total energy              =   -1756.63798270 Ry
     Harris-Foulkes estimate   =   -1756.63798275 Ry
     estimated scf accuracy    <       0.00000064 Ry

     iteration #  5     ecut=    40.00 Ry     beta= 0.30
     Davidson diagonalization with overlap
     ethr =  3.69E-10,  avg # of iterations =  5.0

     total cpu time spent up to now is      550.6 secs

     total energy              =   -1756.63798281 Ry
     Harris-Foulkes estimate   =   -1756.63798287 Ry
     estimated scf accuracy    <       0.00000052 Ry

     iteration #  6     ecut=    40.00 Ry     beta= 0.30
     Davidson diagonalization with overlap
     ethr =  3.00E-10,  avg # of iterations =  3.0

     total cpu time spent up to now is      553.3 secs

     total energy              =   -1756.63798282 Ry
     Harris-Foulkes estimate   =   -1756.63798283 Ry
     estimated scf accuracy    <       0.00000007 Ry

     iteration #  7     ecut=    40.00 Ry     beta= 0.30
     Davidson diagonalization with overlap
     ethr =  4.15E-11,  avg # of iterations =  3.0

     total cpu time spent up to now is      556.1 secs

     total energy              =   -1756.63798282 Ry
     Harris-Foulkes estimate   =   -1756.63798283 Ry
     estimated scf accuracy    <       0.00000001 Ry

     iteration #  8     ecut=    40.00 Ry     beta= 0.30
     Davidson diagonalization with overlap
     ethr =  7.61E-12,  avg # of iterations =  4.0

     total cpu time spent up to now is      559.0 secs

     End of self-consistent calculation

          k = 0.0000 0.0000 0.0000 (  7789 PWs)   bands (ev):

   -40.0243 -40.0241 -39.7999 -39.7999 -39.7998 -39.7998 -26.3153 -16.8779
   -16.8732 -16.2614 -16.2614 -16.2610 -16.2609 -16.1777 -16.1676 -15.9473
   -15.9472 -15.9456 -15.9455 -15.4618 -15.4617 -15.2872 -15.2871 -15.2867
   -15.2866  -6.4060  -6.4060  -6.3394  -5.4720  -5.2355  -5.2355  -5.0549
    -5.0549  -5.0429  -5.0252  -5.0252  -5.0216  -5.0215  -5.0190  -5.0189
    -5.0018  -5.0018  -4.9618  -4.9618  -4.9429  -4.9300  -4.9300  -4.9258
    -4.6454  -4.6099  -4.6099  -4.5908  -4.5908  -4.5616  -4.5616  -4.5518
    -4.5118  -4.5118   5.3406   6.5024   8.1046   9.0365   9.3002  10.3323
    11.1316  11.1951  11.3348  11.8450  11.8451  12.2792  12.2793  12.6976
    12.9421  12.9421  13.0279  13.2452  13.2452  13.3762  13.3763  13.4564
    13.9101  13.9102  14.6994  14.6995  15.6480  15.6774  15.6775  16.0438
    16.0440  17.0490  17.4569  17.5613  17.5924  17.5925  17.6802  17.6945
    17.6946  17.8458  17.8459  17.9315  17.9316  18.0303  18.9328  19.3645

     the Fermi energy is    15.7161 ev

!    total energy              =   -1756.63798282 Ry
     Harris-Foulkes estimate   =   -1756.63798283 Ry
     estimated scf accuracy    <          2.1E-09 Ry

     The total energy is the sum of the following terms:

     one-electron contribution =    -404.58018294 Ry
     hartree contribution      =     318.21506627 Ry
     xc contribution           =    -396.88038213 Ry
     ewald contribution        =   -1273.38736405 Ry
     smearing contrib. (-TS)   =      -0.00511998 Ry

     convergence has been achieved in   8 iterations

     Forces acting on atoms (cartesian axes, Ry/au):

     atom    1 type  1   force =     0.00000000    0.00000000    0.00000000
     atom    2 type  2   force =    -0.00000000   -0.00000000   -0.00007723
     atom    3 type  2   force =     0.00000000    0.00000000   -0.00007723
     atom    4 type  2   force =     0.00000000   -0.00000000   -0.00007723
     atom    5 type  2   force =     0.00000000    0.00000000    0.00007723
     atom    6 type  2   force =    -0.00000000   -0.00000000    0.00007723
     atom    7 type  2   force =     0.00000000    0.00000000    0.00007723
     atom    8 type  3   force =    -0.00000000   -0.00000000   -0.00017232
     atom    9 type  3   force =     0.00000000    0.00000000    0.00017232
     atom   10 type  3   force =     0.00000000    0.00000000    0.00000000
     atom   11 type  3   force =    -0.00000000   -0.00000000   -0.00000000
     atom   12 type  3   force =    -0.00000000   -0.00000000   -0.00000000
     atom   13 type  3   force =     0.00000000    0.00000000    0.00000000

     Total force =     0.000309     Total SCF correction =     0.000093
     SCF correction compared to forces is large: reduce conv_thr to get better values


     Computing stress (Cartesian axis) and pressure

          total   stress  (Ry/bohr**3)                   (kbar)     P=    0.08
   0.00000239   0.00000000  -0.00000000          0.35      0.00     -0.00
   0.00000000   0.00000239  -0.00000000          0.00      0.35     -0.00
  -0.00000000  -0.00000000  -0.00000313         -0.00     -0.00     -0.46


     bfgs converged in   9 scf cycles and   8 bfgs steps
     (criteria: energy <  1.0E-04 Ry, force <  1.0E-03Ry/Bohr, cell <  5.0E-01kbar)

     End of BFGS Geometry Optimization

     Final enthalpy =   -1756.6379828239 Ry
Begin final coordinates
     new unit-cell volume =   1772.38299 a.u.^3 (   262.64006 Ang^3 )
     density =      8.58976 g/cm^3

CELL_PARAMETERS (angstrom)
   5.529788110   0.000000000  -0.000000000
  -2.764894055   4.788936981  -0.000000000
  -0.000000000  -0.000000000   9.917754533

ATOMIC_POSITIONS (crystal)
Y        0.000000000  -0.000000000   0.500000000
Nb       0.500000000   0.000000000   0.253887602
Nb      -0.000000000   0.500000000   0.253887602
Nb       0.500000000   0.500000000   0.253887602
Nb       0.500000000   0.000000000   0.746112398
Nb      -0.000000000   0.500000000   0.746112398
Nb       0.500000000   0.500000000   0.746112398
Sn       0.000000000   0.000000000   0.133192281
Sn      -0.000000000  -0.000000000   0.866807719
Sn       0.666667000   0.333333000  -0.000000000
Sn       0.333333000   0.666667000  -0.000000000
Sn       0.666667000   0.333333000   0.500000000
Sn       0.333333000   0.666667000   0.500000000
End final coordinates



     Writing output data file __prefix__.save/

     A final scf calculation at the relaxed structure.
     The G-vectors are recalculated for the final unit cell
     Results may differ from those at the preceding step.

     G-vector sticks info
     --------------------
     sticks:   dense  smooth     PW     G-vecs:    dense   smooth      PW
     Sum        1507    1201    301                84727    60579    7633



     bravais-lattice index     =            0
     lattice parameter (alat)  =      10.8655  a.u.
     unit-cell volume          =    1772.3830 (a.u.)^3
     number of atoms/cell      =           13
     number of atomic types    =            3
     number of electrons       =       173.00
     number of Kohn-Sham states=          104
     kinetic-energy cutoff     =      40.0000  Ry
     charge density cutoff     =     200.0000  Ry
     convergence threshold     =      1.0E-08
     mixing beta               =       0.3000
     number of iterations used =            8  plain     mixing
     Exchange-correlation      =  SLA  PW   PBX  PBC ( 1  4  3  4 0 0)

     celldm(1)=  10.865547  celldm(2)=   0.000000  celldm(3)=   0.000000
     celldm(4)=   0.000000  celldm(5)=   0.000000  celldm(6)=   0.000000

     crystal axes: (cart. coord. in units of alat)
               a(1) = (   0.961736   0.000000  -0.000000 )  
               a(2) = (  -0.480868   0.832888  -0.000000 )  
               a(3) = (  -0.000000  -0.000000   1.724887 )  

     reciprocal axes: (cart. coord. in units 2 pi/alat)
               b(1) = (  1.039787  0.600321  0.000000 )  
               b(2) = ( -0.000000  1.200642  0.000000 )  
               b(3) = (  0.000000  0.000000  0.579748 )  


     PseudoPot. # 1 for Y  read from file:
     /cluster-101-home/ihbjiobhjiobhjj/data/ihbjiobhjiobhjj-default/new-job-jul-30-2026-16-16-pm-w9MSByQTsYgmLGSDx/pseudo/y_pbe_gbrv_1.4.upf
     MD5 check sum: d034151ed7554c50b6e82763ed42c788
     Pseudo is Ultrasoft + core correction, Zval = 11.0
     Generated by new atomic code, or converted to UPF format
     Using radial grid of  885 points,  6 beta functions with: 
                l(1) =   0
                l(2) =   0
                l(3) =   1
                l(4) =   1
                l(5) =   2
                l(6) =   2
     Q(r) pseudized with  8 coefficients,  rinner =    1.200   1.200   1.200
                                                       1.200   1.200

     PseudoPot. # 2 for Nb read from file:
     /cluster-101-home/ihbjiobhjiobhjj/data/ihbjiobhjiobhjj-default/new-job-jul-30-2026-16-16-pm-w9MSByQTsYgmLGSDx/pseudo/nb_pbe_gbrv_1.0.upf
     MD5 check sum: 573aab8a2fa660278ed4a62cd769473f
     Pseudo is Ultrasoft + core correction, Zval = 13.0
     Generated by new atomic code, or converted to UPF format
     Using radial grid of  887 points,  6 beta functions with: 
                l(1) =   0
                l(2) =   0
                l(3) =   1
                l(4) =   1
                l(5) =   2
                l(6) =   2
     Q(r) pseudized with  6 coefficients,  rinner =    1.000   1.000   1.000
                                                       1.000   1.000

     PseudoPot. # 3 for Sn read from file:
     /cluster-101-home/ihbjiobhjiobhjj/data/ihbjiobhjiobhjj-default/new-job-jul-30-2026-16-16-pm-w9MSByQTsYgmLGSDx/pseudo/sn_pbe_gbrv_1.4.upf
     MD5 check sum: 469debedee59599fedebd795477fea03
     Pseudo is Ultrasoft + core correction, Zval = 14.0
     Generated by new atomic code, or converted to UPF format
     Using radial grid of  891 points,  6 beta functions with: 
                l(1) =   0
                l(2) =   0
                l(3) =   1
                l(4) =   1
                l(5) =   2
                l(6) =   2
     Q(r) pseudized with  8 coefficients,  rinner =    1.350   1.350   1.350
                                                       1.350   1.350

     atomic species   valence    mass     pseudopotential
        Y             11.00    88.90585     Y ( 1.00)
        Nb            13.00    92.90638     Nb( 1.00)
        Sn            14.00   118.71000     Sn( 1.00)

     24 Sym. Ops., with inversion, found



   Cartesian axes

     site n.     atom                  positions (alat units)
         1           Y   tau(   1) = (   0.0000000  -0.0000000   0.8624434  )
         2           Nb  tau(   2) = (   0.4808679   0.0000000   0.4379274  )
         3           Nb  tau(   3) = (  -0.2404339   0.4164438   0.4379274  )
         4           Nb  tau(   4) = (   0.2404339   0.4164438   0.4379274  )
         5           Nb  tau(   5) = (   0.4808679   0.0000000   1.2869595  )
         6           Nb  tau(   6) = (  -0.2404339   0.4164438   1.2869595  )
         7           Nb  tau(   7) = (   0.2404339   0.4164438   1.2869595  )
         8           Sn  tau(   8) = (   0.0000000   0.0000000   0.2297416  )
         9           Sn  tau(   9) = (  -0.0000000  -0.0000000   1.4951453  )
        10           Sn  tau(  10) = (   0.4808683   0.2776289  -0.0000000  )
        11           Sn  tau(  11) = (  -0.0000005   0.5552587  -0.0000000  )
        12           Sn  tau(  12) = (   0.4808683   0.2776289   0.8624434  )
        13           Sn  tau(  13) = (  -0.0000005   0.5552587   0.8624434  )

     number of k points=     1  gaussian smearing, width (Ry)=  0.0050
                       cart. coord. in units 2pi/alat
        k(    1) = (   0.0000000   0.0000000   0.0000000), wk =   2.0000000

     Dense  grid:    84727 G-vectors     FFT dimensions: (  48,  48,  90)

     Smooth grid:    60579 G-vectors     FFT dimensions: (  45,  45,  75)

     Estimated max dynamical RAM per process >     396.29 MB

     Initial potential from superposition of free atoms

     starting charge  166.97886, renormalised to  173.00000
     Starting wfcs are  145 randomized atomic wfcs

     total cpu time spent up to now is      583.9 secs

     Self-consistent Calculation

     iteration #  1     ecut=    40.00 Ry     beta= 0.30
     Davidson diagonalization with overlap
     ethr =  1.00E-06,  avg # of iterations = 16.0

     total cpu time spent up to now is      590.3 secs

     total energy              =   -1755.32225224 Ry
     Harris-Foulkes estimate   =   -1759.47997222 Ry
     estimated scf accuracy    <       9.31545032 Ry

     iteration #  2     ecut=    40.00 Ry     beta= 0.30
     Davidson diagonalization with overlap
     ethr =  5.38E-03,  avg # of iterations =  4.0

     total cpu time spent up to now is      593.3 secs

     total energy              =   -1756.07141594 Ry
     Harris-Foulkes estimate   =   -1757.33591328 Ry
     estimated scf accuracy    <       3.75312170 Ry

     iteration #  3     ecut=    40.00 Ry     beta= 0.30
     Davidson diagonalization with overlap
     ethr =  2.17E-03,  avg # of iterations =  5.0

     total cpu time spent up to now is      596.4 secs

     total energy              =   -1756.53559781 Ry
     Harris-Foulkes estimate   =   -1756.87484737 Ry
     estimated scf accuracy    <       1.07851522 Ry

     iteration #  4     ecut=    40.00 Ry     beta= 0.30
     Davidson diagonalization with overlap
     ethr =  6.23E-04,  avg # of iterations =  4.0

     total cpu time spent up to now is      599.2 secs

     total energy              =   -1756.61861581 Ry
     Harris-Foulkes estimate   =   -1756.65254159 Ry
     estimated scf accuracy    <       0.08899883 Ry

     iteration #  5     ecut=    40.00 Ry     beta= 0.30
     Davidson diagonalization with overlap
     ethr =  5.14E-05,  avg # of iterations =  4.0

     total cpu time spent up to now is      602.4 secs

     total energy              =   -1756.63079282 Ry
     Harris-Foulkes estimate   =   -1756.64127312 Ry
     estimated scf accuracy    <       0.05698604 Ry

     iteration #  6     ecut=    40.00 Ry     beta= 0.30
     Davidson diagonalization with overlap
     ethr =  3.29E-05,  avg # of iterations =  3.0

     total cpu time spent up to now is      605.0 secs

     total energy              =   -1756.63577875 Ry
     Harris-Foulkes estimate   =   -1756.63780914 Ry
     estimated scf accuracy    <       0.00990650 Ry

     iteration #  7     ecut=    40.00 Ry     beta= 0.30
     Davidson diagonalization with overlap
     ethr =  5.73E-06,  avg # of iterations =  4.0

     total cpu time spent up to now is      607.8 secs

     total energy              =   -1756.63606657 Ry
     Harris-Foulkes estimate   =   -1756.63691870 Ry
     estimated scf accuracy    <       0.00463531 Ry

     iteration #  8     ecut=    40.00 Ry     beta= 0.30
     Davidson diagonalization with overlap
     ethr =  2.68E-06,  avg # of iterations = 15.0

     total cpu time spent up to now is      611.2 secs

     total energy              =   -1756.63641287 Ry
     Harris-Foulkes estimate   =   -1756.63644888 Ry
     estimated scf accuracy    <       0.00013515 Ry

     iteration #  9     ecut=    40.00 Ry     beta= 0.30
     Davidson diagonalization with overlap
     ethr =  7.81E-08,  avg # of iterations =  5.0

     total cpu time spent up to now is      614.4 secs

     total energy              =   -1756.63644436 Ry
     Harris-Foulkes estimate   =   -1756.63645109 Ry
     estimated scf accuracy    <       0.00002256 Ry

     iteration # 10     ecut=    40.00 Ry     beta= 0.30
     Davidson diagonalization with overlap
     ethr =  1.30E-08,  avg # of iterations =  5.0

     total cpu time spent up to now is      617.5 secs

     total energy              =   -1756.63644863 Ry
     Harris-Foulkes estimate   =   -1756.63644873 Ry
     estimated scf accuracy    <       0.00000207 Ry

     iteration # 11     ecut=    40.00 Ry     beta= 0.30
     Davidson diagonalization with overlap
     ethr =  1.20E-09,  avg # of iterations =  4.0

     total cpu time spent up to now is      620.3 secs

     total energy              =   -1756.63644892 Ry
     Harris-Foulkes estimate   =   -1756.63644888 Ry
     estimated scf accuracy    <       0.00000040 Ry

     iteration # 12     ecut=    40.00 Ry     beta= 0.30
     Davidson diagonalization with overlap
     ethr =  2.33E-10,  avg # of iterations =  5.0

     total cpu time spent up to now is      623.4 secs

     total energy              =   -1756.63644898 Ry
     Harris-Foulkes estimate   =   -1756.63644898 Ry
     estimated scf accuracy    <       0.00000009 Ry

     iteration # 13     ecut=    40.00 Ry     beta= 0.30
     Davidson diagonalization with overlap
     ethr =  4.99E-11,  avg # of iterations =  4.0

     total cpu time spent up to now is      626.2 secs

     End of self-consistent calculation

          k = 0.0000 0.0000 0.0000 (  7633 PWs)   bands (ev):

   -40.0243 -40.0242 -39.7999 -39.7999 -39.7998 -39.7998 -26.3155 -16.8779
   -16.8731 -16.2613 -16.2612 -16.2609 -16.2608 -16.1780 -16.1679 -15.9477
   -15.9476 -15.9459 -15.9459 -15.4617 -15.4615 -15.2869 -15.2869 -15.2864
   -15.2864  -6.4061  -6.4061  -6.3396  -5.4718  -5.2351  -5.2351  -5.0537
    -5.0537  -5.0425  -5.0244  -5.0244  -5.0210  -5.0210  -5.0186  -5.0186
    -5.0010  -5.0010  -4.9614  -4.9614  -4.9427  -4.9292  -4.9292  -4.9256
    -4.6452  -4.6096  -4.6095  -4.5898  -4.5898  -4.5613  -4.5613  -4.5518
    -4.5112  -4.5111   5.3405   6.5024   8.1045   9.0365   9.3002  10.3323
    11.1316  11.1950  11.3346  11.8451  11.8451  12.2791  12.2792  12.6975
    12.9421  12.9421  13.0278  13.2452  13.2453  13.3762  13.3762  13.4564
    13.9100  13.9101  14.6994  14.6995  15.6479  15.6774  15.6774  16.0437
    16.0438  17.0490  17.4569  17.5613  17.5925  17.5926  17.6801  17.6947
    17.6947  17.8458  17.8459  17.9315  17.9316  18.0299  18.9325  19.3645

     the Fermi energy is    15.7160 ev

!    total energy              =   -1756.63644900 Ry
     Harris-Foulkes estimate   =   -1756.63644900 Ry
     estimated scf accuracy    <          8.7E-09 Ry

     The total energy is the sum of the following terms:

     one-electron contribution =    -404.57956353 Ry
     hartree contribution      =     318.21603068 Ry
     xc contribution           =    -396.88043194 Ry
     ewald contribution        =   -1273.38736405 Ry
     smearing contrib. (-TS)   =      -0.00512016 Ry

     convergence has been achieved in  13 iterations

     Forces acting on atoms (cartesian axes, Ry/au):

     atom    1 type  1   force =     0.00000000   -0.00000000   -0.00000000
     atom    2 type  2   force =     0.00000000    0.00000000    0.00002812
     atom    3 type  2   force =     0.00000000    0.00000000    0.00002812
     atom    4 type  2   force =    -0.00000000   -0.00000000    0.00002812
     atom    5 type  2   force =    -0.00000000   -0.00000000   -0.00002812
     atom    6 type  2   force =    -0.00000000   -0.00000000   -0.00002812
     atom    7 type  2   force =     0.00000000    0.00000000   -0.00002812
     atom    8 type  3   force =     0.00000000   -0.00000000    0.00002888
     atom    9 type  3   force =    -0.00000000   -0.00000000   -0.00002888
     atom   10 type  3   force =     0.00000000   -0.00000000    0.00000000
     atom   11 type  3   force =    -0.00000000    0.00000000   -0.00000000
     atom   12 type  3   force =    -0.00000000   -0.00000000   -0.00000000
     atom   13 type  3   force =    -0.00000000    0.00000000   -0.00000000

     Total force =     0.000080     Total SCF correction =     0.000436
     SCF correction compared to forces is large: reduce conv_thr to get better values


     Computing stress (Cartesian axis) and pressure

          total   stress  (Ry/bohr**3)                   (kbar)     P=    2.56
   0.00002329   0.00000000   0.00000000          3.43      0.00      0.00
   0.00000000   0.00002329   0.00000000          0.00      3.43      0.00
  -0.00000000  -0.00000000   0.00000555         -0.00     -0.00      0.82


     Writing output data file __prefix__.save/

     init_run     :     13.32s CPU     13.74s WALL (       2 calls)
     electrons    :    318.52s CPU    350.55s WALL (      10 calls)
     update_pot   :     69.01s CPU     69.23s WALL (       8 calls)
     forces       :     50.95s CPU     52.58s WALL (      10 calls)
     stress       :    138.24s CPU    142.54s WALL (      10 calls)

     Called by init_run:
     wfcinit      :      1.48s CPU      1.54s WALL (       2 calls)
     potinit      :      2.53s CPU      2.56s WALL (       2 calls)
     hinit0       :      8.51s CPU      8.57s WALL (       2 calls)

     Called by electrons:
     c_bands      :    186.08s CPU    189.26s WALL (     113 calls)
     sum_band     :     78.64s CPU     93.23s WALL (     113 calls)
     v_of_rho     :      9.79s CPU      9.86s WALL (     120 calls)
     newd         :     45.76s CPU     61.00s WALL (     120 calls)
     mix_rho      :      1.78s CPU      1.81s WALL (     113 calls)

     Called by c_bands:
     init_us_2    :      1.77s CPU      1.80s WALL (     228 calls)
     cegterg      :    176.55s CPU    179.68s WALL (     113 calls)

     Called by sum_band:
     sum_band:bec :      0.02s CPU      0.02s WALL (     113 calls)
     addusdens    :     53.20s CPU     67.59s WALL (     113 calls)

     Called by *egterg:
     h_psi        :    123.20s CPU    124.63s WALL (     623 calls)
     s_psi        :      8.10s CPU      8.16s WALL (     623 calls)
     g_psi        :      0.91s CPU      0.92s WALL (     508 calls)
     cdiaghg      :     14.90s CPU     15.00s WALL (     610 calls)

     Called by h_psi:
     h_psi:pot    :    122.63s CPU    123.42s WALL (     623 calls)
     h_psi:calbec :      9.62s CPU      9.68s WALL (     623 calls)
     vloc_psi     :    104.59s CPU    105.27s WALL (     623 calls)
     add_vuspsi   :      8.42s CPU      8.47s WALL (     623 calls)

     General routines
     calbec       :     14.12s CPU     14.21s WALL (     786 calls)
     fft          :      5.86s CPU      5.91s WALL (    1811 calls)
     ffts         :      0.62s CPU      0.63s WALL (     233 calls)
     fftw         :    107.63s CPU    108.32s WALL (   73782 calls)
     interpolate  :      0.81s CPU      0.81s WALL (     120 calls)

     Parallel routines

     PWSCF        :  9m53.39s CPU    10m33.77s WALL


   This run was terminated on:  12:35:38  30Jul2026            

=------------------------------------------------------------------------------=
   JOB DONE.
=------------------------------------------------------------------------------=
Note: The following floating-point exceptions are signalling: IEEE_UNDERFLOW_FLAG IEEE_DENORMAL
